 $CONTRL RUNTYP=ENERGY ISPHER=-1 NPRINT=-5 MAXIT=200 $END
 $local CVGLOC=1e-5 $end
 $SYSTEM modio=274 MWORDS=1000 $END
 $basis ngauss=6 gbasis=n31 ndfunc=1 
 diffsp=.t. $end
 $GDDI ngroup=8 $END
 $fmoprp ngrfmo(1)=8,8 $end
 $SCF DIRSCF=.t. fdiff=.f. NPUNCH=0 SWDIIS=1E-3 $END
 $FMOHYB
6-31+Gd 19 5
 0 1  0.995636  0.028604  0.000000  0.000000  0.000000
     -0.014231  0.000000  0.000000  -0.000001  -0.000669
      0.000000  0.000000  0.000000  -0.002051  -0.002051
     -0.002051  0.000000  0.000000  0.000000
 0 1  0.097208  -0.178986  0.178367  -0.308941  0.126112
     -0.188725  0.092876  -0.160866  0.065669  -0.007773
      0.006395  -0.011077  0.004524  0.000187  -0.020500
      0.005363  0.020687  -0.008441  0.014620
 0 1  0.097208  -0.178986  -0.356735  0.000000  0.126113
     -0.188725  -0.185752  0.000000  0.065670  -0.007773
     -0.012790  0.000000  0.004524  -0.030844  0.010530
      0.005363  0.000000  0.016882  0.000000
 0 1 -0.097207  0.178985  -0.178368  -0.308941  -0.126112
      0.188725  -0.092876  -0.160866  -0.065669  0.007773
     -0.006395  -0.011077  -0.004524  -0.000187  0.020500
     -0.005363  0.020687  0.008441  0.014620
 1 0  0.097192  -0.178944  0.000000  0.000000  -0.378381 
     -0.188719  0.000000  0.000000  -0.197040  -0.007779 
      0.000000  0.000000  -0.013573  0.010530  0.010530 
     -0.036012  0.000000  0.000000  0.000000
 $END
 $fmo resdim=0.3 iefmo=1 modefm(1)=0,16,1,1,1 $end
 $FMOPRP
    NAODIR=210
    nprint=3
 ipieda=1
    !modpar=1033
 $END
 $FMO
      SCFTYP(1)=RHF
      MODMUL=0
      MAXCAO=5
      MODGRD=26
      MODMUL=0
      MAXBND=203
      NFRAG=203
      ICHARG(1)=   1,  0,  0,  0,  0,  0,  1,  1,  0,  0,
                   0,  0,  0,  1,  0,  0,  0,  0,  0,  1,
                  -1,  0,  0,  0, -1,  0,  0,  0, -1, -1,
                   0,  0,  0, -1, -1,  0,  0,  0,  0,  0,
                   1,  0,  1,  0,  1,  0,  0,  0,  0,  0,
                   0,  0,  0,  0,  1,  0,  1,  0,  0, -1,
                   0,  0,  0,  0, -1,  0,  0,  0,  0,  1,
                   0,  0,  0,  0,  0,  0,  0,  0,  0,  0,
                   0,  0,  0,  0,  0,  0,  1,  0,  0,  0,
                   0,  0,  0,  0,  0,  0,  0,  0, -1,  1,
                   0,  0,  0,  0,  0,  1,  1,  0,  0,  0,
                   0,  0,  1,  0,  0,  0,  0,  0,  1, -1,
                   0,  0,  0, -1,  0,  0,  0, -1, -1,  0,
                   0,  0, -1, -1,  0,  0,  0,  0,  0,  1,
                   0,  1,  0,  1,  0,  0,  0,  0,  0,  0,
                   0,  0,  0,  1,  0,  1,  0,  0, -1,  0,
                   0,  0,  0, -1,  0,  0,  0,  0,  1,  0,
                   0,  0,  0,  0,  0,  0,  0,  0,  0,  0,
                   0,  0,  0,  0,  0,  1,  0,  0,  0,  0,
                   0,  0,  0,  0,  0,  0,  0, -1,  0
      FRGNAM(1)= Pro-1, Gln-2, Ile-3, Thr-4, Leu-5, 
                 Trp-6, Lys-7, Arg-8, Pro-9, Leu-10, 
                 Val-11, Thr-12, Ile-13, Arg-14, Ile-15, 
                 Gly-16, Gly-17, Gln-18, Leu-19, Lys-20, 
                 Glu-21, Ala-22, Leu-23, Leu-24, Asp-25, 
                 Thr-26, Gly-27, Ala-28, Asp-29, Asp-30, 
                 Thr-31, Val-32, Leu-33, Glu-34, Glu-35, 
                 Met-36, Asn-37, Leu-38, Pro-39, Gly-40, 
                 Lys-41, Trp-42, Lys-43, Pro-44, Lys-45, 
                 Met-46, Ile-47, Gly-48, Gly-49, Ile-50, 
                 Gly-51, Gly-52, Phe-53, Ile-54, Lys-55, 
                 Val-56, Arg-57, Gln-58, Tyr-59, Asp-60, 
                 Gln-61, Ile-62, Pro-63, Ile-64, Glu-65, 
                 Ile-66, Cys-67, Gly-68, His-69, Lys-70, 
                 Ala-71, Ile-72, Gly-73, Thr-74, Val-75, 
                 Leu-76, Val-77, Gly-78, Pro-79, Thr-80, 
                 Pro-81, Val-82, Asn-83, Ile-84, Ile-85, 
                 Gly-86, Arg-87, Asn-88, Leu-89, Leu-90, 
                 Thr-91, Gln-92, Ile-93, Gly-94, Cys-95, 
                 Thr-96, Leu-97, Asn-98, Phe-99, Pro-100, 
                 Gln-101, Ile-102, Thr-103, Leu-104, Trp-105, 
                 Lys-106, Arg-107, Pro-108, Leu-109, Val-110, 
                 Thr-111, Ile-112, Arg-113, Ile-114, Gly-115, 
                 Gly-116, Gln-117, Leu-118, Lys-119, Glu-120, 
                 Ala-121, Leu-122, Leu-123, Asp-124, Thr-125, 
                 Gly-126, Ala-127, Asp-128, Asp-129, Thr-130, 
                 Val-131, Leu-132, Glu-133, Glu-134, Met-135, 
                 Asn-136, Leu-137, Pro-138, Gly-139, Lys-140, 
                 Trp-141, Lys-142, Pro-143, Lys-144, Met-145, 
                 Ile-146, Gly-147, Gly-148, Ile-149, Gly-150, 
                 Gly-151, Phe-152, Ile-153, Lys-154, Val-155, 
                 Arg-156, Gln-157, Tyr-158, Asp-159, Gln-160, 
                 Ile-161, Pro-162, Ile-163, Glu-164, Ile-165, 
                 Cys-166, Gly-167, His-168, Lys-169, Ala-170, 
                 Ile-171, Gly-172, Thr-173, Val-174, Leu-175, 
                 Val-176, Gly-177, Pro-178, Thr-179, Pro-180, 
                 Val-181, Asn-182, Ile-183, Ile-184, Gly-185, 
                 Arg-186, Asn-187, Leu-188, Leu-189, Thr-190, 
                 Gln-191, Ile-192, Gly-193, Cys-194, Thr-195, 
                 Leu-196, Asn-197, Phe-198, HOH1, lig1,lig2,lig3,lig4
      INDAT(1)= 0
                1    -14      0
               15    -31      0
               32    -50      0
               51    -64      0
               65    -83      0
               84   -107      0
              108   -129      0
              130   -153      0
              154   -167      0
              168   -186      0
              187   -202      0
              203   -216      0
              217   -235      0
              236   -259      0
              260   -278      0
              279   -285      0
              286   -292      0
              293   -309      0
              310   -328      0
              329   -350      0
              351   -365      0
              366   -375      0
              376   -394      0
              395   -413      0
              414   -425      0
              426   -439      0
              440   -446      0
              447   -456      0
              457   -468      0
              469   -480      0
              481   -494      0
              495   -510      0
              511   -529      0
              530   -544      0
              545   -559      0
              560   -576      0
              577   -590      0
              591   -609      0
              610   -623      0
              624   -630      0
              631   -652      0
              653   -676      0
              677   -698      0
              699   -712      0
              713   -734      0
              735   -751      0
              752   -770      0
              771   -777      0
              778   -784      0
              785   -803      0
              804   -810      0
              811   -817      0
              818   -837      0
              838   -856      0
              857   -878      0
              879   -894      0
              895   -918      0
              919   -935      0
              936   -956      0
              957   -968      0
              969   -985      0
              986  -1004      0
             1005  -1018      0
             1019  -1037      0
             1038  -1052      0
             1053  -1071      0
             1072  -1082      0
             1083  -1089      0
             1090  -1106      0
             1107  -1128      0
             1129  -1138      0
             1139  -1157      0
             1158  -1164      0
             1165  -1178      0
             1179  -1194      0
             1195  -1213      0
             1214  -1229      0
             1230  -1236      0
             1237  -1250      0
             1251  -1264      0
             1265  -1278      0
             1279  -1294      0
             1295  -1308      0
             1309  -1327      0
             1328  -1346      0
             1347  -1353      0
             1354  -1377      0
             1378  -1391      0
             1392  -1410      0
             1411  -1429      0
             1430  -1443      0
             1444  -1460      0
             1461  -1479      0
             1480  -1486      0
             1487  -1497      0
             1498  -1511      0
             1512  -1530      0
             1531  -1544      0
             1545  -1567      0
             1568  -1581      0
             1582  -1598      0
             1599  -1617      0
             1618  -1631      0
             1632  -1650      0
             1651  -1674      0
             1675  -1696      0
             1697  -1720      0
             1721  -1734      0
             1735  -1753      0
             1754  -1769      0
             1770  -1783      0
             1784  -1802      0
             1803  -1826      0
             1827  -1845      0
             1846  -1852      0
             1853  -1859      0
             1860  -1876      0
             1877  -1895      0
             1896  -1917      0
             1918  -1932      0
             1933  -1942      0
             1943  -1961      0
             1962  -1980      0
             1981  -1992      0
             1993  -2006      0
             2007  -2013      0
             2014  -2023      0
             2024  -2035      0
             2036  -2047      0
             2048  -2061      0
             2062  -2077      0
             2078  -2096      0
             2097  -2111      0
             2112  -2126      0
             2127  -2143      0
             2144  -2157      0
             2158  -2176      0
             2177  -2190      0
             2191  -2197      0
             2198  -2219      0
             2220  -2243      0
             2244  -2265      0
             2266  -2279      0
             2280  -2301      0
             2302  -2318      0
             2319  -2337      0
             2338  -2344      0
             2345  -2351      0
             2352  -2370      0
             2371  -2377      0
             2378  -2384      0
             2385  -2404      0
             2405  -2423      0
             2424  -2445      0
             2446  -2461      0
             2462  -2485      0
             2486  -2502      0
             2503  -2523      0
             2524  -2535      0
             2536  -2552      0
             2553  -2571      0
             2572  -2585      0
             2586  -2604      0
             2605  -2619      0
             2620  -2638      0
             2639  -2649      0
             2650  -2656      0
             2657  -2673      0
             2674  -2695      0
             2696  -2705      0
             2706  -2724      0
             2725  -2731      0
             2732  -2745      0
             2746  -2761      0
             2762  -2780      0
             2781  -2796      0
             2797  -2803      0
             2804  -2817      0
             2818  -2831      0
             2832  -2845      0
             2846  -2861      0
             2862  -2875      0
             2876  -2894      0
             2895  -2913      0
             2914  -2920      0
             2921  -2944      0
             2945  -2958      0
             2959  -2977      0
             2978  -2996      0
             2997  -3010      0
             3011  -3027      0
             3028  -3046      0
             3047  -3053      0
             3054  -3064      0
             3065  -3078      0
             3079  -3097      0
             3098  -3111      0
             3112  -3134      0
             3135  -3137      0
               3138 -3152  3184 -3193     0
               3153 -3158  3160 -3161  3163 -3164  3167 -3168
               3173  3194 -3198  3201 -3203  3206 -3207  3209
                  0
               3159  3162  3165 -3166  3169 -3171  3174 -3175
               3178 -3183  3199 -3200  3204 -3205  3210 -3211
               3218 -3221     0
               3172  3176 -3177  3208  3212 -3217     0
 $END
 $FMOBND
       -13        15    6-31+Gd   
       -19        32    6-31+Gd
       -36        51    6-31+Gd
       -55        65    6-31+Gd
       -69        84    6-31+Gd
       -88       108    6-31+Gd
      -112       130    6-31+Gd
      -134       154    6-31+Gd
      -166       168    6-31+Gd
      -172       187    6-31+Gd
      -191       203    6-31+Gd
      -207       217    6-31+Gd
      -221       236    6-31+Gd
      -240       260    6-31+Gd
      -264       279    6-31+Gd
      -283       286    6-31+Gd
      -290       293    6-31+Gd
      -297       310    6-31+Gd
      -314       329    6-31+Gd
      -333       351    6-31+Gd
      -355       366    6-31+Gd
      -370       376    6-31+Gd
      -380       395    6-31+Gd
      -399       414    6-31+Gd
      -418       426    6-31+Gd
      -430       440    6-31+Gd
      -444       447    6-31+Gd
      -451       457    6-31+Gd
      -461       469    6-31+Gd
      -473       481    6-31+Gd
      -485       495    6-31+Gd
      -499       511    6-31+Gd
      -515       530    6-31+Gd
      -534       545    6-31+Gd
      -549       560    6-31+Gd
      -564       577    6-31+Gd
      -581       591    6-31+Gd
      -595       610    6-31+Gd
      -622       624    6-31+Gd
      -628       631    6-31+Gd
      -635       653    6-31+Gd
      -657       677    6-31+Gd
      -681       699    6-31+Gd
      -711       713    6-31+Gd
      -717       735    6-31+Gd
      -739       752    6-31+Gd
      -756       771    6-31+Gd
      -775       778    6-31+Gd
      -782       785    6-31+Gd
      -789       804    6-31+Gd
      -808       811    6-31+Gd
      -815       818    6-31+Gd
      -822       838    6-31+Gd
      -842       857    6-31+Gd
      -861       879    6-31+Gd
      -883       895    6-31+Gd
      -899       919    6-31+Gd
      -923       936    6-31+Gd
      -940       957    6-31+Gd
      -961       969    6-31+Gd
      -973       986    6-31+Gd
      -990      1005    6-31+Gd
     -1017      1019    6-31+Gd
     -1023      1038    6-31+Gd
     -1042      1053    6-31+Gd
     -1057      1072    6-31+Gd
     -1076      1083    6-31+Gd
     -1087      1090    6-31+Gd
     -1094      1107    6-31+Gd
     -1111      1129    6-31+Gd
     -1133      1139    6-31+Gd
     -1143      1158    6-31+Gd
     -1162      1165    6-31+Gd
     -1169      1179    6-31+Gd
     -1183      1195    6-31+Gd
     -1199      1214    6-31+Gd
     -1218      1230    6-31+Gd
     -1234      1237    6-31+Gd
     -1249      1251    6-31+Gd
     -1255      1265    6-31+Gd
     -1277      1279    6-31+Gd
     -1283      1295    6-31+Gd
     -1299      1309    6-31+Gd
     -1313      1328    6-31+Gd
     -1332      1347    6-31+Gd
     -1351      1354    6-31+Gd
     -1358      1378    6-31+Gd
     -1382      1392    6-31+Gd
     -1396      1411    6-31+Gd
     -1415      1430    6-31+Gd
     -1434      1444    6-31+Gd
     -1448      1461    6-31+Gd
     -1465      1480    6-31+Gd
     -1484      1487    6-31+Gd
     -1491      1498    6-31+Gd
     -1502      1512    6-31+Gd
     -1516      1531    6-31+Gd
     -1535      1545    6-31+Gd
     -1580      1582    6-31+Gd   
     -1586      1599    6-31+Gd
     -1603      1618    6-31+Gd
     -1622      1632    6-31+Gd
     -1636      1651    6-31+Gd
     -1655      1675    6-31+Gd
     -1679      1697    6-31+Gd
     -1701      1721    6-31+Gd
     -1733      1735    6-31+Gd
     -1739      1754    6-31+Gd
     -1758      1770    6-31+Gd
     -1774      1784    6-31+Gd
     -1788      1803    6-31+Gd
     -1807      1827    6-31+Gd
     -1831      1846    6-31+Gd
     -1850      1853    6-31+Gd
     -1857      1860    6-31+Gd
     -1864      1877    6-31+Gd
     -1881      1896    6-31+Gd
     -1900      1918    6-31+Gd
     -1922      1933    6-31+Gd
     -1937      1943    6-31+Gd
     -1947      1962    6-31+Gd
     -1966      1981    6-31+Gd
     -1985      1993    6-31+Gd
     -1997      2007    6-31+Gd
     -2011      2014    6-31+Gd
     -2018      2024    6-31+Gd
     -2028      2036    6-31+Gd
     -2040      2048    6-31+Gd
     -2052      2062    6-31+Gd
     -2066      2078    6-31+Gd
     -2082      2097    6-31+Gd
     -2101      2112    6-31+Gd
     -2116      2127    6-31+Gd
     -2131      2144    6-31+Gd
     -2148      2158    6-31+Gd
     -2162      2177    6-31+Gd
     -2189      2191    6-31+Gd
     -2195      2198    6-31+Gd
     -2202      2220    6-31+Gd
     -2224      2244    6-31+Gd
     -2248      2266    6-31+Gd
     -2278      2280    6-31+Gd
     -2284      2302    6-31+Gd
     -2306      2319    6-31+Gd
     -2323      2338    6-31+Gd
     -2342      2345    6-31+Gd
     -2349      2352    6-31+Gd
     -2356      2371    6-31+Gd
     -2375      2378    6-31+Gd
     -2382      2385    6-31+Gd
     -2389      2405    6-31+Gd
     -2409      2424    6-31+Gd
     -2428      2446    6-31+Gd
     -2450      2462    6-31+Gd
     -2466      2486    6-31+Gd
     -2490      2503    6-31+Gd
     -2507      2524    6-31+Gd
     -2528      2536    6-31+Gd
     -2540      2553    6-31+Gd
     -2557      2572    6-31+Gd
     -2584      2586    6-31+Gd
     -2590      2605    6-31+Gd
     -2609      2620    6-31+Gd
     -2624      2639    6-31+Gd
     -2643      2650    6-31+Gd
     -2654      2657    6-31+Gd
     -2661      2674    6-31+Gd
     -2678      2696    6-31+Gd
     -2700      2706    6-31+Gd
     -2710      2725    6-31+Gd
     -2729      2732    6-31+Gd
     -2736      2746    6-31+Gd
     -2750      2762    6-31+Gd
     -2766      2781    6-31+Gd
     -2785      2797    6-31+Gd
     -2801      2804    6-31+Gd
     -2816      2818    6-31+Gd
     -2822      2832    6-31+Gd
     -2844      2846    6-31+Gd
     -2850      2862    6-31+Gd
     -2866      2876    6-31+Gd
     -2880      2895    6-31+Gd
     -2899      2914    6-31+Gd
     -2918      2921    6-31+Gd
     -2925      2945    6-31+Gd
     -2949      2959    6-31+Gd
     -2963      2978    6-31+Gd
     -2982      2997    6-31+Gd
     -3001      3011    6-31+Gd
     -3015      3028    6-31+Gd
     -3032      3047    6-31+Gd
     -3051      3054    6-31+Gd
     -3058      3065    6-31+Gd
     -3069      3079    6-31+Gd
     -3083      3098    6-31+Gd
     -3102      3112    6-31+Gd
      -3150    3153  6-31+Gd
      -3157    3159  6-31+Gd
      -3166    3172  6-31+Gd
 $END
 $DATA
 FMO calculation
 C1 
 N.1-1    7
 H.1-1    1
 C.1-1    6
 O.1-1    8
 F.1-1    9
 S.1-1   16
 $END
 $FMOXYZ
 N  7.0        28.6360000000       21.4740000000       33.8360000000
 H  1.0        28.2230800000       20.7178900000       33.2814800000
 H  1.0        29.2467700000       21.0292400000       34.5005900000
 C  6.0        29.4200000000       22.3430000000       32.9370000000
 H  1.0        29.4903700000       21.9215800000       31.9308100000
 H  1.0        30.4151200000       22.5088100000       33.3522200000
 C  6.0        28.6440000000       23.6390000000       32.9330000000
 H  1.0        27.8948200000       23.6035600000       32.1372900000
 H  1.0        29.3030600000       24.4957100000       32.7821000000
 C  6.0        27.9730000000       23.6730000000       34.2720000000
 H  1.0        27.1121700000       24.3457300000       34.2751500000
 H  1.0        28.6900100000       23.9894100000       35.0318200000
 C  6.0        27.5820000000       22.2130000000       34.5210000000
 H  1.0        27.5827800000       21.9915800000       35.5875300000
 C  6.0        26.1780000000       21.9720000000       33.9690000000
 O  8.0        26.0170000000       21.5380000000       32.8190000000
 N  7.0        25.1770000000       22.2750000000       34.7900000000
 H  1.0        25.3890300000       22.6189400000       35.7145400000
 C  6.0        23.8100000000       22.4460000000       34.3120000000
 H  1.0        23.6517100000       21.8683000000       33.3990100000
 C  6.0        22.8110000000       21.9630000000       35.3580000000
 H  1.0        22.9140200000       20.8814700000       35.4526300000
 H  1.0        23.0510700000       22.4070800000       36.3257200000
 C  6.0        21.3660000000       22.3040000000       35.0190000000
 H  1.0        21.1762100000       23.3596500000       35.2166500000
 H  1.0        21.1928400000       22.1226900000       33.9572100000
 C  6.0        20.3710000000       21.4640000000       35.7950000000
 O  8.0        19.9100000000       20.4330000000       35.3140000000
 N  7.0        20.0440000000       21.8950000000       37.0030000000
 H  1.0        20.4416000000       22.7407200000       37.3709400000
 H  1.0        19.3858300000       21.3529000000       37.5346100000
 C  6.0        23.5510000000       23.9200000000       34.0110000000
 O  8.0        23.8420000000       24.7860000000       34.8440000000
 N  7.0        22.9810000000       24.1960000000       32.8410000000
 H  1.0        22.7650900000       23.4419900000       32.1960100000
 C  6.0        22.7040000000       25.5700000000       32.4290000000
 H  1.0        22.9748000000       26.2563500000       33.2313500000
 C  6.0        23.5580000000       25.9740000000       31.2080000000
 H  1.0        23.3348700000       25.2949300000       30.3864200000
 C  6.0        23.2390000000       27.4110000000       30.7690000000
 H  1.0        23.9107900000       27.7229900000       29.9709000000
 H  1.0        22.2271700000       27.4603800000       30.3679000000
 H  1.0        23.3329200000       28.1017200000       31.6073600000
 C  6.0        25.0420000000       25.8470000000       31.5590000000
 H  1.0        25.3233300000       26.6342800000       32.2600000000
 H  1.0        25.2329500000       24.8929500000       32.0468500000
 C  6.0        25.9770000000       25.8720000000       30.3850000000
 H  1.0        26.9817100000       25.6019800000       30.7112600000
 H  1.0        25.6365600000       25.1618300000       29.6319000000
 H  1.0        26.0121700000       26.8687600000       29.9459000000
 C  6.0        21.2140000000       25.7620000000       32.1640000000
 O  8.0        20.6270000000       25.1080000000       31.3030000000
 N  7.0        20.6140000000       26.6620000000       32.9320000000
 H  1.0        21.1651500000       27.1912000000       33.5899100000
 C  6.0        19.2270000000       27.0790000000       32.7330000000
 H  1.0        18.6322700000       26.2344100000       32.3863400000
 C  6.0        18.6000000000       27.6220000000       34.0380000000
 H  1.0        17.5458900000       27.8375900000       33.8616000000
 C  6.0        18.6970000000       26.5950000000       35.1570000000
 H  1.0        18.1419200000       26.9523500000       36.0239700000
 H  1.0        18.2625200000       25.6508300000       34.8293800000
 H  1.0        19.7365300000       26.4339300000       35.4429700000
 O  8.0        19.2620000000       28.8330000000       34.4240000000
 H  1.0        19.1221100000       28.9412300000       35.3705100000
 C  6.0        19.1790000000       28.1640000000       31.6650000000
 O  8.0        20.2100000000       28.7080000000       31.2790000000
 N  7.0        17.9740000000       28.5130000000       31.2280000000
 H  1.0        17.1629300000       28.0487900000       31.6070400000
 C  6.0        17.8080000000       29.2770000000       29.9950000000
 H  1.0        18.7803800000       29.6030300000       29.6257800000
 C  6.0        17.1660000000       28.3890000000       28.9210000000
 H  1.0        16.2070900000       28.0286400000       29.2952400000
 H  1.0        16.9701000000       28.9741100000       28.0246600000
 C  6.0        18.0280000000       27.1840000000       28.5320000000
 H  1.0        18.3239300000       26.6478400000       29.4330700000
 C  6.0        17.2420000000       26.1700000000       27.6750000000
 H  1.0        17.8489100000       25.2800600000       27.5092200000
 H  1.0        16.3321800000       25.8750400000       28.1957200000
 H  1.0        16.9745200000       26.6204400000       26.7197900000
 C  6.0        19.2930000000       27.6310000000       27.8190000000
 H  1.0        19.8488300000       26.7508800000       27.4960000000
 H  1.0        19.0426100000       28.2283300000       26.9425800000
 H  1.0        19.9352100000       28.2018200000       28.4877400000
 C  6.0        17.0340000000       30.5840000000       30.1950000000
 O  8.0        16.4860000000       31.1430000000       29.2570000000
 N  7.0        17.0370000000       31.0950000000       31.4240000000
 H  1.0        17.4610600000       30.5659500000       32.1708500000
 C  6.0        16.5060000000       32.4250000000       31.7040000000
 H  1.0        15.5291500000       32.5308500000       31.2298200000
 C  6.0        16.3480000000       32.6100000000       33.2060000000
 H  1.0        17.3337100000       32.6828800000       33.6689500000
 H  1.0        15.8081400000       33.5371000000       33.4036400000
 C  6.0        15.6220000000       31.4760000000       33.8150000000
 C  6.0        16.1570000000       30.3740000000       34.4320000000
 H  1.0        17.2147700000       30.2169700000       34.5901300000
 N  7.0        15.1540000000       29.5350000000       34.8460000000
 H  1.0        15.2937500000       28.6662400000       35.3462200000
 C  6.0        13.9520000000       30.0750000000       34.4670000000
 C  6.0        12.6710000000       29.5940000000       34.6400000000
 H  1.0        12.4856000000       28.6547100000       35.1404600000
 C  6.0        11.6520000000       30.3570000000       34.1460000000
 H  1.0        10.6324400000       30.0113900000       34.2571300000
 C  6.0        11.8900000000       31.5740000000       33.4870000000
 H  1.0        11.0516900000       32.1421600000       33.1050700000
 C  6.0        13.1570000000       32.0410000000       33.3100000000
 H  1.0        13.3385100000       32.9753100000       32.7989000000
 C  6.0        14.2160000000       31.2940000000       33.8100000000
 C  6.0        17.4200000000       33.5060000000       31.1420000000
 O  8.0        16.9910000000       34.6230000000       30.8990000000
 N  7.0        18.6810000000       33.1510000000       30.9190000000
 H  1.0        18.9476400000       32.1923900000       31.0977900000
 C  6.0        19.6270000000       34.0050000000       30.2240000000
 H  1.0        19.1275300000       34.8923900000       29.8322800000
 C  6.0        20.7390000000       34.4350000000       31.1880000000
 H  1.0        20.3017000000       35.0070300000       32.0083600000
 H  1.0        21.2368000000       33.5511200000       31.5927300000
 C  6.0        21.7514400000       35.2987200000       30.4433000000
 H  1.0        22.2813300000       34.7346100000       29.6862000000
 H  1.0        21.2653800000       36.1746900000       30.0100200000
 C  6.0        22.8574800000       35.7264200000       31.4021300000
 H  1.0        22.4247600000       36.2987900000       32.2244900000
 H  1.0        23.3561600000       34.8409400000       31.8011100000
 C  6.0        23.8699200000       36.5901400000       30.6574300000
 H  1.0        24.2933700000       36.0160800000       29.8299900000
 H  1.0        23.3663000000       37.4697200000       30.2512000000
 N  7.0        24.9360700000       37.0024100000       31.5816900000
 H  1.0        25.4134300000       36.2021400000       31.9571400000
 H  1.0        25.6145800000       37.5740700000       31.1098000000
 H  1.0        24.5617800000       37.5340200000       32.3473900000
 C  6.0        20.2180000000       33.2410000000       29.0390000000
 O  8.0        20.2110000000       32.0160000000       29.0340000000
 N  7.0        20.7410000000       33.9620000000       28.0520000000
 H  1.0        20.6851700000       34.9658600000       28.1144400000
 C  6.0        21.5230000000       33.3630000000       26.9740000000
 H  1.0        20.8470500000       32.8025400000       26.3308800000
 C  6.0        22.1970000000       34.4500000000       26.1430000000
 H  1.0        22.6502100000       35.1731200000       26.8247500000
 H  1.0        23.0004100000       33.9924300000       25.5662500000
 C  6.0        21.3140000000       35.1500000000       25.1480000000
 H  1.0        21.0635800000       34.4872400000       24.3179200000
 H  1.0        20.3985600000       35.4600200000       25.6491700000
 C  6.0        22.0220000000       36.3900000000       24.6440000000
 H  1.0        22.4497500000       36.9174800000       25.4981200000
 H  1.0        22.8571200000       36.0928800000       24.0080300000
 N  7.0        21.1400000000       37.3440000000       23.9630000000
 H  1.0        20.5431400000       37.9344000000       24.5148400000
 C  6.0        21.0630000000       37.5050000000       22.6390000000
 N  7.0        21.8094200000       36.8560100000       21.7901800000
 H  1.0        22.4011400000       36.1254300000       22.1263700000
 H  1.0        21.6988100000       37.0146800000       20.8101800000
 N  7.0        20.2430000000       38.4300000000       22.1420000000
 H  1.0        19.3769300000       38.5393800000       22.6642100000
 H  1.0        20.1933500000       38.5310800000       21.1508200000
 C  6.0        22.6240000000       32.4360000000       27.4950000000
 O  8.0        23.4120000000       32.8230000000       28.3540000000
 N  7.0        22.6960000000       31.2050000000       26.9780000000
 C  6.0        21.7900000000       30.5560000000       26.0150000000
 H  1.0        21.7131900000       31.0950200000       25.0730600000
 H  1.0        20.8122900000       30.4374100000       26.4791600000
 C  6.0        22.4090000000       29.1950000000       25.8150000000
 H  1.0        23.0337400000       29.2275600000       24.9228600000
 H  1.0        21.6497900000       28.4281200000       25.7155400000
 C  6.0        23.2640000000       28.9370000000       26.9870000000
 H  1.0        24.0611100000       28.2257800000       26.7789700000
 H  1.0        22.6379700000       28.5322900000       27.7840900000
 C  6.0        23.7660000000       30.3100000000       27.4210000000
 H  1.0        23.8431400000       30.3212600000       28.5092400000
 C  6.0        25.1530000000       30.6470000000       26.8380000000
 O  8.0        25.7250000000       29.8990000000       26.0240000000
 N  7.0        25.6890000000       31.7850000000       27.2680000000
 H  1.0        25.1766900000       32.3377600000       27.9448900000
 C  6.0        26.9890000000       32.2500000000       26.8140000000
 H  1.0        27.1470200000       31.9433300000       25.7831200000
 C  6.0        27.0640000000       33.7760000000       26.9240000000
 H  1.0        26.7665000000       34.0645000000       27.9334900000
 H  1.0        28.0992800000       34.0935100000       26.7844900000
 C  6.0        26.1850000000       34.5170000000       25.9160000000
 H  1.0        25.1857100000       34.0901600000       25.9430000000
 C  6.0        26.0480000000       36.0050000000       26.2480000000
 H  1.0        25.4025000000       36.4864800000       25.5140600000
 H  1.0        25.6070900000       36.1192400000       27.2376600000
 H  1.0        27.0299400000       36.4778300000       26.2309000000
 C  6.0        26.7430000000       34.3280000000       24.5130000000
 H  1.0        26.1527900000       34.9059900000       23.8027500000
 H  1.0        27.7792800000       34.6633500000       24.4678800000
 H  1.0        26.6899200000       33.2856700000       24.2158700000
 C  6.0        28.0890000000       31.6260000000       27.6590000000
 O  8.0        28.0180000000       31.6670000000       28.8890000000
 N  7.0        29.1180000000       31.0810000000       27.0070000000
 H  1.0        29.1251200000       31.0732400000       25.9901900000
 C  6.0        30.2720000000       30.5700000000       27.7220000000
 H  1.0        30.2494600000       30.8994000000       28.7603700000
 C  6.0        30.3150000000       29.0310000000       27.7180000000
 H  1.0        31.1967200000       28.7068000000       28.2698100000
 C  6.0        29.0960000000       28.4690000000       28.4130000000
 H  1.0        29.1955600000       27.3879500000       28.5044500000
 H  1.0        29.0039600000       28.9001200000       29.4097500000
 H  1.0        28.1927500000       28.6873900000       27.8412300000
 C  6.0        30.4020000000       28.4880000000       26.2880000000
 H  1.0        30.4305200000       27.4004500000       26.3225000000
 H  1.0        29.5352300000       28.7949800000       25.7010100000
 H  1.0        31.3095400000       28.8332200000       25.7936500000
 C  6.0        31.5590000000       31.1010000000       27.1280000000
 O  8.0        31.5790000000       31.5710000000       25.9950000000
 N  7.0        32.6290000000       31.0130000000       27.9140000000
 H  1.0        32.5261100000       30.6539000000       28.8494000000
 C  6.0        33.9640000000       31.2920000000       27.4300000000
 H  1.0        33.9124300000       32.1290800000       26.7357900000
 C  6.0        34.9090000000       31.7020000000       28.5800000000
 H  1.0        34.9955600000       30.8820500000       29.2941100000
 C  6.0        36.2870000000       32.0350000000       28.0390000000
 H  1.0        36.8891400000       32.4688500000       28.8369300000
 H  1.0        36.7900600000       31.1361400000       27.6834800000
 H  1.0        36.2060500000       32.7563800000       27.2245300000
 O  8.0        34.3660000000       32.8400000000       29.2520000000
 H  1.0        34.1623100000       33.5359300000       28.5970600000
 C  6.0        34.5470000000       30.0800000000       26.7090000000
 O  8.0        34.4620000000       28.9540000000       27.2060000000
 N  7.0        35.1000000000       30.3310000000       25.5230000000
 H  1.0        35.0943400000       31.2868000000       25.1777000000
 C  6.0        35.8630000000       29.3430000000       24.7730000000
 H  1.0        35.8542300000       28.4080300000       25.3215900000
 C  6.0        35.2500000000       29.0840000000       23.3700000000
 H  1.0        35.7143100000       28.1851700000       22.9748300000
 C  6.0        33.7310000000       28.8200000000       23.4880000000
 H  1.0        33.3578100000       28.3747300000       22.5700900000
 H  1.0        33.5429700000       28.1222100000       24.3025900000
 H  1.0        33.1939000000       29.7483400000       23.6887800000
 C  6.0        35.5520000000       30.2440000000       22.4060000000
 H  1.0        35.2457300000       31.1774900000       22.8746800000
 H  1.0        36.6249700000       30.2905300000       22.2173100000
 C  6.0        34.8780000000       30.1650000000       21.0650000000
 H  1.0        35.2271600000       30.9830900000       20.4345300000
 H  1.0        35.1240600000       29.2187900000       20.5820300000
 H  1.0        33.7985300000       30.2476500000       21.1704200000
 C  6.0        37.3080000000       29.8320000000       24.6520000000
 O  8.0        37.5850000000       31.0360000000       24.7540000000
 N  7.0        38.2250000000       28.8790000000       24.5360000000
 H  1.0        37.9112200000       27.9121800000       24.5777700000
 C  6.0        39.6200000000       29.1560000000       24.2160000000
 H  1.0        39.7881300000       30.2292200000       24.2003900000
 C  6.0        40.5470000000       28.5230000000       25.2510000000
 H  1.0        40.1894400000       28.8088200000       26.2423200000
 H  1.0        40.4679000000       27.4408800000       25.1632200000
 C  6.0        41.9950000000       28.9440000000       25.1330000000
 H  1.0        42.4065600000       28.5996200000       24.1831100000
 H  1.0        42.0613900000       30.0319000000       25.1664100000
 C  6.0        42.8120000000       28.3680000000       26.2760000000
 H  1.0        43.8344800000       28.7399900000       26.2142200000
 H  1.0        42.3937000000       28.7192600000       27.2211800000
 N  7.0        42.7440000000       26.9080000000       26.2400000000
 H  1.0        41.9141900000       26.4548900000       26.5847300000
 C  6.0        43.7090000000       26.1240000000       25.7750000000
 N  7.0        44.8710000000       26.6400000000       25.3840000000
 H  1.0        45.0133500000       27.6266600000       25.4354300000
 H  1.0        45.5944400000       26.0318500000       25.0557400000
 N  7.0        43.5300000000       24.8100000000       25.7460000000
 H  1.0        42.7140900000       24.3990500000       26.1776100000
 H  1.0        44.2708100000       24.2221600000       25.4215400000
 C  6.0        39.9190000000       28.5710000000       22.8430000000
 O  8.0        39.6880000000       27.3930000000       22.5990000000
 N  7.0        40.4120000000       29.4070000000       21.9410000000
 H  1.0        40.5233100000       30.3882600000       22.1789200000
 C  6.0        40.7540000000       28.9550000000       20.6030000000
 H  1.0        40.9869300000       27.8885000000       20.6245700000
 C  6.0        39.5710000000       29.1500000000       19.6120000000
 H  1.0        38.7409900000       28.5393500000       19.9706200000
 C  6.0        39.0940000000       30.6140000000       19.5590000000
 H  1.0        38.1441100000       30.6701700000       19.0276700000
 H  1.0        38.9264900000       31.0069200000       20.5614600000
 H  1.0        39.8150500000       31.2451700000       19.0432200000
 C  6.0        39.9620000000       28.6590000000       18.2190000000
 H  1.0        40.7383500000       29.3010400000       17.8030800000
 H  1.0        40.3687200000       27.6507400000       18.3063700000
 C  6.0        38.8060000000       28.6030000000       17.2430000000
 H  1.0        39.1367000000       28.1753100000       16.3029600000
 H  1.0        37.9864000000       28.0143000000       17.6412300000
 H  1.0        38.4467500000       29.6093300000       17.0310300000
 C  6.0        42.0110000000       29.6960000000       20.1480000000
 O  8.0        42.0310000000       30.9190000000       20.1050000000
 N  7.0        43.0800000000       28.9540000000       19.8790000000
 H  1.0        43.0066200000       27.9484300000       19.9236800000
 C  6.0        44.3480000000       29.5630000000       19.4700000000
 H  1.0        45.0748100000       28.7737000000       19.2816200000
 H  1.0        44.1978600000       30.1279400000       18.5493200000
 C  6.0        44.9240000000       30.4970000000       20.5180000000
 O  8.0        45.5790000000       31.4920000000       20.1790000000
 N  7.0        44.6580000000       30.1960000000       21.7880000000
 H  1.0        44.1040200000       29.3760800000       21.9818100000
 C  6.0        45.1920000000       30.9760000000       22.9020000000
 H  1.0        45.1753100000       30.3627200000       23.8021100000
 H  1.0        46.2244400000       31.2578600000       22.6927400000
 C  6.0        44.4040000000       32.2370000000       23.1800000000
 O  8.0        44.7870000000       33.0490000000       24.0200000000
 N  7.0        43.2860000000       32.3890000000       22.4790000000
 H  1.0        43.0247200000       31.6947500000       21.7893400000
 C  6.0        42.4360000000       33.5500000000       22.6160000000
 H  1.0        42.9354200000       34.3285500000       23.1942500000
 C  6.0        42.0990000000       34.1140000000       21.2290000000
 H  1.0        41.3235800000       33.4957300000       20.7731600000
 H  1.0        41.6850200000       35.1160700000       21.3486000000
 C  6.0        43.2780000000       34.1570000000       20.2510000000
 H  1.0        43.5874100000       33.1472000000       19.9907500000
 H  1.0        42.9312700000       34.6293300000       19.3321700000
 C  6.0        44.4790000000       34.9440000000       20.7540000000
 O  8.0        45.6210000000       34.4510000000       20.7260000000
 N  7.0        44.2400000000       36.1960000000       21.1650000000
 H  1.0        43.3088400000       36.5715400000       21.1430000000
 H  1.0        45.0169400000       36.7479500000       21.4845000000
 C  6.0        41.1500000000       33.1470000000       23.3210000000
 O  8.0        40.6060000000       32.0800000000       23.0580000000
 N  7.0        40.6510000000       34.0230000000       24.1810000000
 H  1.0        41.1298700000       34.8985800000       24.3230800000
 C  6.0        39.3700000000       33.8270000000       24.8380000000
 H  1.0        39.0923400000       32.7797400000       24.7923900000
 C  6.0        39.4660000000       34.2360000000       26.3060000000
 H  1.0        39.6162000000       35.3160100000       26.3503900000
 H  1.0        38.5050400000       34.0227100000       26.7772400000
 C  6.0        40.5700000000       33.5810000000       27.1390000000
 H  1.0        41.5432600000       33.8405400000       26.7217500000
 C  6.0        40.5230000000       34.0990000000       28.5720000000
 H  1.0        41.3281200000       33.6462700000       29.1501300000
 H  1.0        40.6514100000       35.1811800000       28.5769800000
 H  1.0        39.5661700000       33.8454100000       29.0289000000
 C  6.0        40.4190000000       32.0640000000       27.1110000000
 H  1.0        41.1710200000       31.6093500000       27.7545500000
 H  1.0        39.4263100000       31.7786500000       27.4598300000
 H  1.0        40.5614400000       31.6912600000       26.0985500000
 C  6.0        38.2800000000       34.6560000000       24.1600000000
 O  8.0        38.4400000000       35.8580000000       23.9410000000
 N  7.0        37.1510000000       34.0050000000       23.8950000000
 H  1.0        37.0880200000       33.0247500000       24.1616500000
 C  6.0        35.9740000000       34.6350000000       23.3070000000
 H  1.0        36.0168800000       35.7209300000       23.3963900000
 C  6.0        35.8490000000       34.2250000000       21.8420000000
 H  1.0        35.7394600000       33.1417800000       21.7920400000
 H  1.0        34.9387500000       34.6672800000       21.4342500000
 C  6.0        37.0070000000       34.6270000000       20.9640000000
 H  1.0        37.0758300000       35.7154500000       20.9360600000
 H  1.0        37.9382100000       34.2227200000       21.3627300000
 C  6.0        36.8190000000       34.0900000000       19.5590000000
 H  1.0        36.7889700000       33.0001400000       19.6124900000
 H  1.0        35.8703700000       34.4298500000       19.1385900000
 C  6.0        37.9700000000       34.4760000000       18.6520000000
 H  1.0        38.8863400000       34.5542600000       19.2409800000
 H  1.0        38.1087100000       33.6748200000       17.9222100000
 N  7.0        37.7030000000       35.7460000000       17.9200000000
 H  1.0        38.4800700000       35.9862700000       17.3295200000
 H  1.0        36.8902000000       35.6463400000       17.3325400000
 H  1.0        37.5412300000       36.5015400000       18.5626800000
 C  6.0        34.7550000000       34.1210000000       24.0570000000
 O  8.0        34.8230000000       33.0710000000       24.6960000000
 N  7.0        33.6540000000       34.8620000000       23.9880000000
 H  1.0        33.6690300000       35.6888400000       23.4140900000
 C  6.0        32.3510000000       34.3540000000       24.4170000000
 H  1.0        32.4933100000       33.5493500000       25.1349200000
 C  6.0        31.5140000000       35.4460000000       25.0960000000
 H  1.0        31.2652400000       36.2051000000       24.3525300000
 H  1.0        30.5778800000       35.0097600000       25.4480100000
 C  6.0        32.2140000000       36.1420000000       26.2540000000
 H  1.0        33.1362700000       36.6135200000       25.9072400000
 H  1.0        31.5628300000       36.9405500000       26.6164500000
 C  6.0        32.5020000000       35.1870000000       27.4040000000
 O  8.0        33.6990000000       34.9550000000       27.7050000000
 O  8.0        31.5190000000       34.6430000000       27.9670000000
 C  6.0        31.6050000000       33.8120000000       23.2050000000
 O  8.0        31.6730000000       34.3640000000       22.1050000000
 N  7.0        30.9050000000       32.7110000000       23.4170000000
 H  1.0        30.9162400000       32.2692500000       24.3333400000
 C  6.0        30.1140000000       32.0920000000       22.3730000000
 H  1.0        29.8081700000       32.8382500000       21.6409500000
 C  6.0        30.9150000000       31.0000000000       21.6820000000
 H  1.0        30.3316100000       30.5746000000       20.8643100000
 H  1.0        31.8299400000       31.4263500000       21.2730600000
 H  1.0        31.1654200000       30.2125100000       22.3936300000
 C  6.0        28.8550000000       31.5170000000       22.9940000000
 O  8.0        28.8110000000       31.1900000000       24.1850000000
 N  7.0        27.8520000000       31.3740000000       22.1430000000
 H  1.0        28.0016500000       31.6483900000       21.1763800000
 C  6.0        26.5040000000       30.9830000000       22.5120000000
 H  1.0        26.3368300000       31.1741600000       23.5716000000
 C  6.0        25.5571800000       31.8380700000       21.6499200000
 H  1.0        25.8102000000       32.8912100000       21.7832800000
 H  1.0        25.7481800000       31.5924200000       20.6062900000
 C  6.0        24.0551900000       31.6509500000       21.9129900000
 H  1.0        23.7803500000       30.5976600000       21.8609400000
 C  6.0        23.6880000000       32.2170000000       23.2820000000
 H  1.0        22.6098700000       32.1673300000       23.4230500000
 H  1.0        24.1748700000       31.6615200000       24.0824100000
 H  1.0        24.0012200000       33.2595500000       23.3050000000
 C  6.0        23.2709925844       32.4299925460       20.8561863518
 H  1.0        22.2053700000       32.4019800000       21.0793500000
 H  1.0        23.4278971779       31.9754806573       19.8765334988
 H  1.0        23.5967043320       33.4690824999       20.8276097630
 C  6.0        26.3050000000       29.5020000000       22.2410000000
 O  8.0        26.5310000000       29.0240000000       21.1220000000
 N  7.0        25.9200000000       28.7630000000       23.2750000000
 H  1.0        25.8038600000       29.1864200000       24.1894800000
 C  6.0        25.5970000000       27.3620000000       23.1020000000
 H  1.0        26.3361900000       26.9074600000       22.4410700000
 C  6.0        25.6470000000       26.6110000000       24.4330000000
 H  1.0        24.8702900000       27.0204900000       25.0756900000
 H  1.0        25.3791800000       25.5718000000       24.2353200000
 C  6.0        26.9700000000       26.6230000000       25.2100000000
 H  1.0        27.2229600000       27.6527700000       25.4591000000
 C  6.0        26.8010000000       25.8540000000       26.5360000000
 H  1.0        27.7354700000       25.8804400000       27.0938700000
 H  1.0        26.0159700000       26.3202500000       27.1302100000
 H  1.0        26.5349100000       24.8164800000       26.3300100000
 C  6.0        28.1160000000       26.0490000000       24.3850000000
 H  1.0        29.0259300000       26.0552600000       24.9803600000
 H  1.0        27.8981800000       25.0241500000       24.1033200000
 H  1.0        28.2831000000       26.6633100000       23.5038500000
 C  6.0        24.2430000000       27.2530000000       22.4080000000
 O  8.0        23.1990000000       27.5890000000       22.9730000000
 N  7.0        24.2910000000       26.7680000000       21.1690000000
 H  1.0        25.1899200000       26.4842000000       20.7913100000
 C  6.0        23.2197400000       26.9018700000       20.1936400000
 H  1.0        22.3429800000       27.3618800000       20.6516000000
 C  6.0        23.7057300000       27.8367600000       19.0750300000
 H  1.0        24.0724000000       28.7612300000       19.5268900000
 H  1.0        24.5330100000       27.3740200000       18.5349200000
 C  6.0        22.5991360062       28.1797954879       18.0835876530
 O  8.0        21.8139908391       27.2738451717       17.7382295246
 O  8.0        22.5319334457       29.3528903609       17.6650029186
 C  6.0        22.8288800000       25.5088500000       19.7033900000
 O  8.0        23.5138000000       24.8858700000       18.8882500000
 N  7.0        21.7475000000       24.9738500000       20.2672900000
 H  1.0        21.2493500000       25.4753100000       20.9943900000
 C  6.0        21.2890000000       23.6360000000       19.9040000000
 H  1.0        22.1574600000       22.9940600000       19.7656700000
 C  6.0        20.4020000000       23.0010000000       20.9920000000
 H  1.0        20.0627100000       22.0240300000       20.6505500000
 C  6.0        21.1780000000       22.8170000000       22.3010000000
 H  1.0        20.5350400000       22.2978000000       23.0040900000
 H  1.0        22.0630200000       22.2127200000       22.1187500000
 H  1.0        21.4822900000       23.7720500000       22.7149900000
 O  8.0        19.2670000000       23.8350000000       21.2390000000
 H  1.0        18.4590800000       23.3723300000       20.9681300000
 C  6.0        20.5024200000       23.5815500000       18.5926000000
 O  8.0        20.3936000000       22.4963400000       18.0129600000
 N  7.0        19.9404260284       24.7008198100       18.1213081270
 H  1.0        20.0642693288       25.5769381173       18.6255077682
 C  6.0        19.2608034772       24.7751638935       16.8281666534
 H  1.0        18.5405500000       23.9613200000       16.7456300000
 H  1.0        18.7307686867       25.7253651085       16.7681695407
 C  6.0        20.2304264085       24.7041945917       15.6454594267
 O  8.0        19.8674431153       24.1814816022       14.5913120152
 N  7.0        21.4688934162       25.1702602800       15.8236882937
 H  1.0        21.6669275449       25.6766764962       16.6856425065
 C  6.0        22.4829728058       25.1977863348       14.7817967259
 H  1.0        21.9642173074       25.3936701926       13.8473243581
 C  6.0        23.4393744814       26.3652599948       15.0511177134
 H  1.0        24.1797082279       26.4341755671       14.2539191040
 H  1.0        22.8802119369       27.2996906410       15.1098992292
 H  1.0        23.9563300000       26.2028500000       15.9972900000
 C  6.0        23.2400146635       23.8697224791       14.6131301247
 O  8.0        23.8535700000       23.3431400000       15.5436200000
 N  7.0        23.2842278135       23.3701646094       13.3764085994
 H  1.0        22.7336060125       23.8175678272       12.6519424499
 C  6.0        24.1141228960       22.2240753853       12.9921054217
 H  1.0        23.8376000000       21.3465800000       13.5787600000
 C  6.0        23.9206908941       21.9157655564       11.4988517448
 H  1.0        24.2118455240       22.7916726535       10.9161962171
 H  1.0        24.5996300000       21.1090700000       11.2228500000
 C  6.0        22.5103898080       21.4985197042       11.0863918689
 O  8.0        21.7003702697       21.0601772650       11.9360275041
 O  8.0        22.2394557466       21.5383456196        9.8705321764
 C  6.0        25.6065300000       22.5095000000       13.2113100000
 O  8.0        26.3500000000       21.6410000000       13.6600000000
 N  7.0        26.0508200000       23.7297500000       12.9017100000
 H  1.0        25.3724700000       24.4309400000       12.6444600000
 C  6.0        27.4670000000       24.0630000000       12.7490000000
 H  1.0        28.0705300000       23.1869400000       12.9957100000
 C  6.0        27.7730000000       24.4600000000       11.3090000000
 H  1.0        27.2098600000       25.3619900000       11.0586000000
 H  1.0        28.8363400000       24.6905700000       11.2236300000
 C  6.0        27.4450000000       23.3710000000       10.3220000000
 O  8.0        27.8220000000       22.2070000000       10.5790000000
 O  8.0        26.8270500000       23.6826600000        9.2832600000
 C  6.0        27.8960000000       25.2050000000       13.6510000000
 O  8.0        27.1564800000       26.1513800000       13.9136200000
 N  7.0        29.1400000000       25.1080000000       14.1020000000
 H  1.0        29.6548100000       24.2599900000       13.9071100000
 C  6.0        29.8090000000       26.1330000000       14.8730000000
 H  1.0        29.1105500000       26.5882900000       15.5743500000
 C  6.0        30.9890000000       25.5190000000       15.6570000000
 H  1.0        31.6341700000       24.9850400000       14.9577000000
 C  6.0        31.8240000000       26.6070000000       16.3220000000
 H  1.0        32.6657800000       26.1383100000       16.8283400000
 H  1.0        32.2282000000       27.3087200000       15.5943500000
 H  1.0        31.2391900000       27.1345400000       17.0630800000
 O  8.0        30.4990000000       24.5700000000       16.6280000000
 H  1.0        30.2559100000       23.7605300000       16.1486300000
 C  6.0        30.3190000000       27.1810000000       13.8940000000
 O  8.0        31.0400000000       26.8690000000       12.9340000000
 N  7.0        29.8900000000       28.4160000000       14.1180000000
 H  1.0        29.3568200000       28.5992500000       14.9627200000
 C  6.0        30.2580000000       29.5400000000       13.2840000000
 H  1.0        31.0205300000       29.2281000000       12.5898500000
 C  6.0        29.0410000000       30.0490000000       12.4730000000
 H  1.0        28.3703100000       30.6163100000       13.1172200000
 C  6.0        29.5130000000       30.9630000000       11.3680000000
 H  1.0        28.6552600000       31.3267200000       10.8031400000
 H  1.0        30.0456100000       31.8175000000       11.7854300000
 H  1.0        30.1805600000       30.4246700000       10.6959700000
 C  6.0        28.2450000000       28.8760000000       11.9040000000
 H  1.0        27.4692600000       29.2495200000       11.2371300000
 H  1.0        28.9002100000       28.2017000000       11.3560900000
 H  1.0        27.7499700000       28.3295800000       12.7044000000
 C  6.0        30.7640000000       30.6640000000       14.1820000000
 O  8.0        30.0380000000       31.1040000000       15.0760000000
 N  7.0        31.9790000000       31.1470000000       13.9120000000
 H  1.0        32.4906400000       30.7668300000       13.1250200000
 C  6.0        32.6000000000       32.2070000000       14.6910000000
 H  1.0        31.9802900000       32.4641500000       15.5495600000
 C  6.0        33.9800000000       31.7760000000       15.1910000000
 H  1.0        34.6073500000       31.5875000000       14.3180000000
 H  1.0        34.4163400000       32.6277400000       15.7162000000
 C  6.0        34.0820000000       30.5620000000       16.1080000000
 H  1.0        33.7821200000       29.6698100000       15.5606500000
 C  6.0        35.5350000000       30.4020000000       16.5610000000
 H  1.0        35.6338000000       29.4897000000       17.1486500000
 H  1.0        36.1865200000       30.3355500000       15.6904500000
 H  1.0        35.8364600000       31.2568100000       17.1655900000
 C  6.0        33.1830000000       30.7140000000       17.3070000000
 H  1.0        33.3248700000       29.8664200000       17.9773400000
 H  1.0        33.4232500000       31.6358000000       17.8343100000
 H  1.0        32.1384700000       30.7210200000       16.9948200000
 C  6.0        32.7620000000       33.4670000000       13.8500000000
 O  8.0        32.9430000000       33.3880000000       12.6420000000
 N  7.0        32.6960000000       34.6240000000       14.5040000000
 H  1.0        32.5875200000       34.6134200000       15.5125800000
 C  6.0        32.9350000000       35.9090000000       13.8320000000
 H  1.0        32.2239600000       36.0192800000       13.0145100000
 C  6.0        32.7510000000       37.0740000000       14.8150000000
 H  1.0        33.4600100000       36.9739200000       15.6386700000
 H  1.0        32.9619600000       38.0095400000       14.2945700000
 C  6.0        31.3460000000       37.1580000000       15.3730000000
 H  1.0        30.6482100000       37.1061800000       14.5358200000
 H  1.0        31.1398900000       36.3025400000       16.0159300000
 C  6.0        31.0900000000       38.4370000000       16.1390000000
 O  8.0        30.4330000000       39.3560000000       15.5930000000
 O  8.0        31.5110000000       38.4990000000       17.3070000000
 C  6.0        34.3340000000       35.9780000000       13.2580000000
 O  8.0        35.1960000000       35.1680000000       13.6110000000
 N  7.0        34.5460000000       36.9470000000       12.3660000000
 H  1.0        33.7884400000       37.5661900000       12.1267200000
 C  6.0        35.8190000000       37.0930000000       11.6660000000
 H  1.0        35.9092800000       36.2621900000       10.9646100000
 C  6.0        35.8690000000       38.4010000000       10.8690000000
 H  1.0        35.0850000000       38.3747000000       10.1105100000
 H  1.0        35.6364100000       39.2260100000       11.5444300000
 C  6.0        37.2080000000       38.7220000000       10.1880000000
 H  1.0        37.0918500000       39.6492100000        9.6230500000
 H  1.0        37.9634200000       38.9016500000       10.9560100000
 C  6.0        37.6910000000       37.6260000000        9.2420000000
 O  8.0        36.8320000000       36.9230000000        8.6680000000
 O  8.0        38.9280000000       37.4740000000        9.0680000000
 C  6.0        36.9760000000       37.0120000000       12.6570000000
 O  8.0        36.9510000000       37.6240000000       13.7180000000
 N  7.0        37.9430000000       36.1760000000       12.3140000000
 H  1.0        37.8748300000       35.6618800000       11.4444300000
 C  6.0        39.1450000000       35.9730000000       13.0990000000
 H  1.0        39.5487700000       36.9361100000       13.4126400000
 C  6.0        38.8410000000       35.1130000000       14.3350000000
 H  1.0        39.7351200000       35.1225700000       14.9558000000
 H  1.0        38.0349500000       35.5623200000       14.9147500000
 C  6.0        38.4770000000       33.6720000000       14.0250000000
 H  1.0        37.5011300000       33.6525800000       13.5374000000
 H  1.0        39.2050400000       33.2378500000       13.3410100000
 S 16.0        38.4140000000       32.6090000000       15.4830000000
 C  6.0        40.1130000000       32.6580000000       16.0770000000
 H  1.0        40.2563600000       31.8809700000       16.8270700000
 H  1.0        40.7988700000       32.4873500000       15.2498000000
 H  1.0        40.3262600000       33.6262900000       16.5271800000
 C  6.0        40.1450000000       35.2770000000       12.1720000000
 O  8.0        39.7650000000       34.7400000000       11.1260000000
 N  7.0        41.4180000000       35.3120000000       12.5510000000
 H  1.0        41.6537000000       35.7529100000       13.4258300000
 C  6.0        42.4510000000       34.5690000000       11.8650000000
 H  1.0        42.1657300000       34.4088800000       10.8221600000
 C  6.0        43.7500000000       35.3680000000       11.8880000000
 H  1.0        44.0297300000       35.5793300000       12.9202800000
 H  1.0        44.5461300000       34.7764800000       11.4376500000
 C  6.0        43.6420000000       36.6590000000       11.1040000000
 O  8.0        43.2630000000       36.6500000000        9.9340000000
 N  7.0        43.9650000000       37.7720000000       11.7410000000
 H  1.0        43.8932400000       38.6422000000       11.2437000000
 H  1.0        44.2682500000       37.7415800000       12.6980000000
 C  6.0        42.6440000000       33.2130000000       12.5300000000
 O  8.0        42.7630000000       33.1240000000       13.7510000000
 N  7.0        42.6000000000       32.1570000000       11.7270000000
 H  1.0        42.4517200000       32.2905500000       10.7364000000
 C  6.0        43.0320000000       30.8440000000       12.1660000000
 H  1.0        43.5022900000       30.9254700000       13.1414600000
 C  6.0        41.8450000000       29.8920000000       12.2510000000
 H  1.0        41.2854100000       29.9747500000       11.3175900000
 H  1.0        42.2191600000       28.8679000000       12.2982200000
 C  6.0        40.8760000000       30.0840000000       13.4130000000
 H  1.0        40.5313500000       31.1168800000       13.4181100000
 C  6.0        39.6590000000       29.1860000000       13.1970000000
 H  1.0        38.9334400000       29.3552300000       13.9927700000
 H  1.0        39.1850300000       29.4244500000       12.2445700000
 H  1.0        39.9570900000       28.1381000000       13.1946800000
 C  6.0        41.5310000000       29.7790000000       14.7330000000
 H  1.0        40.7882800000       29.8713900000       15.5214700000
 H  1.0        41.9250000000       28.7630000000       14.7337500000
 H  1.0        42.3305100000       30.4898500000       14.9342400000
 C  6.0        44.0510000000       30.3090000000       11.1670000000
 O  8.0        44.0060000000       30.6540000000        9.9860000000
 N  7.0        44.9960000000       29.4950000000       11.6470000000
 C  6.0        45.1750000000       28.9980000000       13.0240000000
 H  1.0        44.4669700000       28.1951100000       13.2350900000
 H  1.0        45.0850800000       29.7984200000       13.7579600000
 C  6.0        46.5820000000       28.4790000000       13.0330000000
 H  1.0        46.5603300000       27.4153700000       13.2748100000
 H  1.0        47.1738400000       29.0005700000       13.7865000000
 C  6.0        47.1910000000       28.6640000000       11.6810000000
 H  1.0        47.7398500000       27.7752500000       11.3655000000
 H  1.0        47.8688700000       29.5184200000       11.7121100000
 C  6.0        46.0230000000       28.9960000000       10.7450000000
 H  1.0        46.3372200000       29.7674200000       10.0403200000
 C  6.0        45.5750000000       27.7650000000        9.9690000000
 O  8.0        44.5450000000       27.1690000000       10.2780000000
 N  7.0        46.3470000000       27.4260000000        8.9440000000
 H  1.0        47.1449300000       28.0025600000        8.7263900000
 C  6.0        46.1050000000       26.2420000000        8.1320000000
 H  1.0        47.0541600000       25.8671900000        7.7497900000
 H  1.0        45.6459700000       25.4571500000        8.7346300000
 C  6.0        45.1990000000       26.5480000000        6.9570000000
 O  8.0        44.7370000000       27.6810000000        6.7720000000
 N  7.0        44.9240000000       25.5090000000        6.1800000000
 H  1.0        45.3006300000       24.6054600000        6.4254100000
 C  6.0        44.1100000000       25.6300000000        4.9880000000
 H  1.0        44.3709600000       26.5556200000        4.4713100000
 C  6.0        44.3670000000       24.4490000000        4.0490000000
 H  1.0        45.4205000000       24.4376900000        3.7635400000
 H  1.0        44.1243700000       23.5140900000        4.5586000000
 C  6.0        43.5013900000       24.5935100000        2.8018200000
 H  1.0        42.4439100000       24.5602800000        3.0578900000
 H  1.0        43.7320500000       25.5306100000        2.2919400000
 C  6.0        43.7574600000       23.4167800000        1.8662100000
 H  1.0        44.8103900000       23.4024500000        1.5793300000
 H  1.0        43.5095400000       22.4844200000        2.3767200000
 C  6.0        42.8918600000       23.5613000000        0.6190300000
 H  1.0        41.8395600000       23.5881800000        0.9103400000
 H  1.0        43.1364900000       24.4994000000        0.1164800000
 N  7.0        43.1386900000       22.4270000000       -0.2828300000
 H  1.0        42.9125200000       21.5566400000        0.1645300000
 H  1.0        42.5780300000       22.5033700000       -1.1130700000
 H  1.0        44.1027100000       22.3947500000       -0.5630100000
 C  6.0        42.6340000000       25.6870000000        5.3570000000
 O  8.0        42.1650000000       24.9790000000        6.2600000000
 N  7.0        41.9090000000       26.5390000000        4.6470000000
 H  1.0        42.3451700000       27.0817300000        3.9181000000
 C  6.0        40.4650000000       26.6050000000        4.7690000000
 H  1.0        40.1080300000       25.8164300000        5.4265700000
 C  6.0        40.0300000000       27.9610000000        5.3330000000
 H  1.0        38.9417700000       28.0113900000        5.3561700000
 H  1.0        40.3713400000       28.0157700000        6.3594400000
 C  6.0        40.5720000000       29.1420000000        4.5770000000
 C  6.0        41.7920000000       29.7450000000        4.7470000000
 H  1.0        42.5339700000       29.4356500000        5.4757500000
 N  7.0        41.9330000000       30.7870000000        3.8620000000
 H  1.0        42.7462300000       31.3871700000        3.8041500000
 C  6.0        40.7950000000       30.8780000000        3.1030000000
 C  6.0        40.4630000000       31.7750000000        2.0850000000
 H  1.0        41.1501500000       32.5515100000        1.7819700000
 C  6.0        39.2370000000       31.6340000000        1.4920000000
 H  1.0        38.9475600000       32.3157900000        0.7029700000
 C  6.0        38.3490000000       30.6260000000        1.8870000000
 H  1.0        37.3845900000       30.5536500000        1.4039300000
 C  6.0        38.6780000000       29.7320000000        2.8990000000
 H  1.0        37.9833700000       28.9766300000        3.2240500000
 C  6.0        39.9190000000       29.8550000000        3.5250000000
 C  6.0        39.8680000000       26.3780000000        3.3850000000
 O  8.0        40.5790000000       26.4470000000        2.3720000000
 N  7.0        38.5790000000       26.0660000000        3.3600000000
 H  1.0        38.0936200000       25.9586800000        4.2469900000
 C  6.0        37.8250000000       25.9580000000        2.1200000000
 H  1.0        38.4832900000       26.1654400000        1.2804900000
 C  6.0        37.2780000000       24.5380000000        1.9590000000
 H  1.0        38.1110900000       23.8343100000        1.9120600000
 H  1.0        36.6480200000       24.2854300000        2.8148500000
 C  6.0        36.4588400000       24.4513100000        0.6756100000
 H  1.0        35.6183600000       25.1048600000        0.7185000000
 H  1.0        37.0976500000       24.6638800000       -0.1797500000
 C  6.0        35.9137000000       23.0361400000        0.5151600000
 H  1.0        36.7431400000       22.3282800000        0.4690400000
 H  1.0        35.2789700000       22.7935400000        1.3699500000
 C  6.0        35.0945300000       22.9494500000       -0.7682300000
 H  1.0        34.2716800000       23.6668300000       -0.7177100000
 H  1.0        35.7279400000       23.2051800000       -1.6200000000
 N  7.0        34.5690500000       21.5853200000       -0.9228900000
 H  1.0        33.9806500000       21.3386000000       -0.1469600000
 H  1.0        34.0230900000       21.5072600000       -1.7627900000
 H  1.0        35.3165200000       20.9164700000       -0.9761700000
 C  6.0        36.6530000000       26.9310000000        2.1390000000
 O  8.0        35.9810000000       27.0420000000        3.1640000000
 N  7.0        36.3810000000       27.5970000000        0.9990000000
 C  6.0        37.1420000000       27.5370000000       -0.2640000000
 H  1.0        36.9490100000       26.6106300000       -0.7953600000
 H  1.0        38.2106700000       27.6908900000       -0.1084400000
 C  6.0        36.5840000000       28.6610000000       -1.0770000000
 H  1.0        36.4718800000       28.3655500000       -2.1210000000
 H  1.0        37.2718300000       29.5060300000       -1.0180100000
 C  6.0        35.2710000000       29.0700000000       -0.4910000000
 H  1.0        34.4643800000       28.7101000000       -1.1325400000
 H  1.0        35.2085700000       30.1564100000       -0.4148800000
 C  6.0        35.1840000000       28.4310000000        0.9010000000
 H  1.0        35.1893200000       29.1992700000        1.6763300000
 C  6.0        33.9330000000       27.5700000000        1.0000000000
 O  8.0        33.8840000000       26.4850000000        0.4140000000
 N  7.0        32.9660000000       28.0420000000        1.7810000000
 H  1.0        33.1154200000       28.9154100000        2.2831000000
 C  6.0        31.6930000000       27.3660000000        1.9660000000
 H  1.0        31.4941100000       26.6948100000        1.1294800000
 C  6.0        31.7340000000       26.5710000000        3.2700000000
 H  1.0        32.5777700000       25.8822600000        3.1919100000
 H  1.0        31.9402600000       27.2328300000        4.1052600000
 C  6.0        30.4710000000       25.7630000000        3.5610000000
 H  1.0        29.7157500000       26.4019400000        4.0187700000
 H  1.0        30.0858700000       25.3896300000        2.6119500000
 C  6.0        30.7600000000       24.5750000000        4.4800000000
 H  1.0        31.6496600000       24.0572800000        4.1300600000
 H  1.0        30.9379600000       24.9354300000        5.4944800000
 C  6.0        29.6100000000       23.5830000000        4.4840000000
 H  1.0        29.8055500000       22.8331600000        5.2534100000
 H  1.0        28.6903500000       24.1086000000        4.7514800000
 N  7.0        29.4430000000       22.9030000000        3.1700000000
 H  1.0        28.6930400000       22.2352600000        3.2098700000
 H  1.0        29.2292800000       23.5709300000        2.4506300000
 H  1.0        30.2846100000       22.4156600000        2.9162000000
 C  6.0        30.5870000000       28.4060000000        2.0300000000
 O  8.0        30.8510000000       29.5740000000        2.2900000000
 N  7.0        29.3520000000       27.9980000000        1.7640000000
 H  1.0        29.1713300000       27.0215300000        1.5921800000
 C  6.0        28.2180000000       28.8830000000        2.0050000000
 H  1.0        28.5443500000       29.7943800000        2.4915700000
 C  6.0        27.5160000000       29.2330000000        0.6900000000
 H  1.0        27.3726400000       28.3244100000        0.1024900000
 H  1.0        26.5346000000       29.6347200000        0.9399000000
 C  6.0        28.2560000000       30.2630000000       -0.1380000000
 H  1.0        28.2919400000       31.2079000000        0.4053200000
 H  1.0        29.2759000000       29.9187100000       -0.3116600000
 S 16.0        27.4560000000       30.5070000000       -1.7240000000
 C  6.0        25.9050000000       31.2330000000       -1.1610000000
 H  1.0        25.3567100000       31.6205900000       -2.0198100000
 H  1.0        25.2902400000       30.4797000000       -0.6692200000
 H  1.0        26.1069000000       32.0513200000       -0.4688800000
 C  6.0        27.2600000000       28.1740000000        2.9340000000
 O  8.0        27.1030000000       26.9610000000        2.8360000000
 N  7.0        26.6490000000       28.9240000000        3.8440000000
 H  1.0        26.8166800000       29.9264200000        3.8593900000
 C  6.0        25.6800000000       28.3540000000        4.7810000000
 H  1.0        25.3379400000       27.3924100000        4.3971400000
 C  6.0        26.2910000000       28.0920000000        6.1770000000
 H  1.0        25.5335400000       27.6010500000        6.7913600000
 C  6.0        27.4960000000       27.1660000000        6.0670000000
 H  1.0        27.7466000000       26.7781200000        7.0531700000
 H  1.0        27.2508000000       26.3120200000        5.4356900000
 H  1.0        28.3545200000       27.6911700000        5.6498600000
 C  6.0        26.7140000000       29.4030000000        6.8650000000
 H  1.0        27.4829000000       29.9007000000        6.2734900000
 H  1.0        25.8552000000       30.0700400000        6.9287400000
 C  6.0        27.2210000000       29.2350000000        8.2650000000
 H  1.0        27.3611300000       30.2173400000        8.7164100000
 H  1.0        26.4979300000       28.6746900000        8.8590900000
 H  1.0        28.1796400000       28.7178300000        8.2680800000
 C  6.0        24.4370000000       29.2360000000        4.8950000000
 O  8.0        24.5030000000       30.4510000000        4.7340000000
 N  7.0        23.2948500000       28.5837400000        5.1067400000
 H  1.0        23.3293500000       27.5836500000        5.2189200000
 C  6.0        22.0109900000       29.2449100000        5.3106300000
 H  1.0        21.9114800000       30.0885700000        4.6296600000
 H  1.0        21.2057033185       28.5494835766        5.0859697958
 C  6.0        21.8379500000       29.7634200000        6.7351800000
 O  8.0        22.7431932304       29.6795920928        7.5612089988
 N  7.0        20.6389991446       30.2549113536        7.0181590459
 H  1.0        19.9623459037       30.3261176049        6.2714903146
 C  6.0        20.2205942017       30.7938267224        8.3075269564
 H  1.0        20.2648084186       30.0223651847        9.0763673429
 H  1.0        20.8791725689       31.6128685273        8.5927606347
 C  6.0        18.7913246020       31.3196059459        8.2139640335
 O  8.0        18.0744535179       31.0209759264        7.2531164874
 N  7.0        18.3667466118       32.1170128690        9.1913723337
 H  1.0        19.0106999042       32.3390340602        9.9454897664
 C  6.0        17.0368400000       32.7296400000        9.1999900000
 H  1.0        16.3295980904       31.9695488178        8.8686049705
 C  6.0        16.6388896765       33.1467571805       10.6356995474
 H  1.0        17.0385843741       32.3970965409       11.3205301274
 C  6.0        17.2333991484       34.5110358305       11.0311884240
 H  1.0        17.1545199631       34.6512253061       12.1081777449
 H  1.0        18.2867590705       34.5402415189       10.7575359355
 H  1.0        16.7048300000       35.3238800000       10.5301500000
 C  6.0        15.1032800000       33.1229900000       10.7881000000
 H  1.0        14.6567200000       33.8615300000       10.1226000000
 H  1.0        14.7384400000       32.1377000000       10.4934400000
 C  6.0        14.6244518217       33.3814432737       12.2223380557
 H  1.0        13.5472500000       33.2331100000       12.2682400000
 H  1.0        14.8508738482       34.4040585625       12.5239924124
 H  1.0        15.1047047429       32.6821883792       12.9071857808
 C  6.0        16.9485000000       33.8774900000        8.1856800000
 O  8.0        15.8910000000       34.1220000000        7.6270000000
 N  7.0        18.0427500000       34.5809300000        7.8966800000
 H  1.0        18.9194300000       34.3337700000        8.3488700000
 C  6.0        18.0040000000       35.7690000000        7.0460000000
 H  1.0        16.9907600000       36.1684900000        7.0143700000
 H  1.0        18.6299500000       36.5234400000        7.5151700000
 C  6.0        18.4910000000       35.6120000000        5.6190000000
 O  8.0        18.4300000000       36.5590000000        4.8390000000
 N  7.0        19.0080000000       34.4360000000        5.2840000000
 H  1.0        19.0647200000       33.7030800000        5.9827500000
 C  6.0        19.5650000000       34.1840000000        3.9710000000
 H  1.0        18.8659500000       33.5937400000        3.3795300000
 H  1.0        19.7740900000       35.1163700000        3.4453600000
 C  6.0        20.8530000000       33.4140000000        4.1180000000
 O  8.0        21.0921100000       32.7564900000        5.1305700000
 N  7.0        21.6700000000       33.4700000000        3.0780000000
 H  1.0        21.4288200000       34.0346400000        2.2788100000
 C  6.0        22.8650000000       32.6480000000        3.0100000000
 H  1.0        22.9166500000       31.9769100000        3.8632400000
 C  6.0        22.8450000000       31.8200000000        1.7350000000
 H  1.0        22.4375300000       32.4087100000        0.9112700000
 H  1.0        23.8723700000       31.5669500000        1.4673800000
 C  6.0        22.0710000000       30.5410000000        1.8700000000
 C  6.0        20.6662200000       30.5707700000        1.9981500000
 H  1.0        20.1404500000       31.5131500000        1.9995200000
 C  6.0        19.9353100000       29.3758100000        2.1225200000
 H  1.0        18.8597100000       29.4055000000        2.2313000000
 C  6.0        20.6065579477       28.1423564053        2.1017543574
 H  1.0        20.0522865955       27.2179817449        2.1954167954
 C  6.0        22.0030000000       28.1156200000        1.9521800000
 H  1.0        22.5260200000       27.1696200000        1.9271400000
 C  6.0        22.7220000000       29.3200000000        1.8390000000
 H  1.0        23.7957400000       29.2817600000        1.7212900000
 C  6.0        24.1060000000       33.5250000000        3.0380000000
 O  8.0        24.0880000000       34.6120000000        2.4920000000
 N  7.0        25.1860000000       33.0100000000        3.6170000000
 H  1.0        25.1331700000       32.0810100000        4.0271700000
 C  6.0        26.4280000000       33.7640000000        3.7400000000
 H  1.0        26.4098300000       34.6212400000        3.0666000000
 C  6.0        26.6580000000       34.3030000000        5.1920000000
 H  1.0        27.5953400000       34.8608500000        5.1796900000
 C  6.0        25.5480000000       35.2780000000        5.5830000000
 H  1.0        25.7976600000       35.7812900000        6.5165200000
 H  1.0        25.4199300000       36.0295400000        4.8033800000
 H  1.0        24.6149500000       34.7301500000        5.7118600000
 C  6.0        26.8060000000       33.1560000000        6.2040000000
 H  1.0        25.8241700000       32.7272200000        6.4031400000
 H  1.0        27.4230500000       32.3598900000        5.7962600000
 C  6.0        27.4600000000       33.5690000000        7.5300000000
 H  1.0        27.4064000000       32.7348200000        8.2299500000
 H  1.0        28.5033700000       33.8020600000        7.3632100000
 H  1.0        26.9505000000       34.4262000000        7.9686400000
 C  6.0        27.6200000000       32.9010000000        3.3280000000
 O  8.0        27.5240000000       31.6730000000        3.2790000000
 N  7.0        28.7160000000       33.5540000000        2.9580000000
 H  1.0        28.7336500000       34.5607600000        3.0200600000
 C  6.0        29.9650000000       32.8410000000        2.7060000000
 H  1.0        29.7624000000       31.8263700000        2.3621500000
 C  6.0        30.8170000000       33.5490000000        1.6530000000
 H  1.0        31.0745100000       34.5344400000        2.0469700000
 H  1.0        31.7451400000       32.9900100000        1.5200800000
 C  6.0        30.1520000000       33.7140000000        0.3050000000
 H  1.0        30.1103000000       32.7556900000       -0.2147200000
 H  1.0        29.1326200000       34.0757900000        0.4408500000
 C  6.0        30.8870000000       34.7390000000       -0.5300000000
 H  1.0        30.2398800000       35.0337400000       -1.3574800000
 H  1.0        31.1021500000       35.6289600000        0.0638100000
 C  6.0        32.1680000000       34.1660000000       -1.1090000000
 H  1.0        32.7828900000       33.7767500000       -0.2952700000
 H  1.0        31.9184000000       33.3366300000       -1.7739500000
 N  7.0        32.9380000000       35.2000000000       -1.8560000000
 H  1.0        33.7836600000       34.8112700000       -2.2344700000
 H  1.0        32.3977600000       35.5669800000       -2.6191800000
 H  1.0        33.1900800000       35.9640200000       -1.2546400000
 C  6.0        30.7560000000       32.7680000000        4.0000000000
 O  8.0        30.7840000000       33.7270000000        4.7780000000
 N  7.0        31.3640000000       31.6170000000        4.2290000000
 H  1.0        31.3042300000       30.8797900000        3.5333700000
 C  6.0        32.2100000000       31.3990000000        5.3920000000
 H  1.0        32.5054500000       32.3519900000        5.8315800000
 C  6.0        31.4940000000       30.5580000000        6.4880000000
 H  1.0        32.1941400000       30.3884200000        7.3056400000
 C  6.0        30.2870000000       31.3100000000        7.0800000000
 H  1.0        29.9084500000       30.7686800000        7.9470500000
 H  1.0        30.5787800000       32.3050600000        7.3880700000
 H  1.0        29.4975700000       31.3863100000        6.3346400000
 C  6.0        31.0720000000       29.1960000000        5.9460000000
 H  1.0        30.4683300000       28.6870500000        6.6937400000
 H  1.0        30.4779200000       29.2960200000        5.0388700000
 H  1.0        31.9605000000       28.5975500000        5.7606400000
 C  6.0        33.4800000000       30.6900000000        4.9390000000
 O  8.0        33.5460000000       30.1600000000        3.8200000000
 N  7.0        34.4920000000       30.6950000000        5.7990000000
 H  1.0        34.3871600000       31.1920900000        6.6806800000
 C  6.0        35.6760000000       29.8630000000        5.5810000000
 H  1.0        35.6951000000       29.4851000000        4.5578200000
 C  6.0        36.9540000000       30.6690000000        5.8150000000
 H  1.0        37.0429300000       30.8780200000        6.8814400000
 H  1.0        37.8144300000       30.0779700000        5.5088200000
 C  6.0        36.9320000000       31.9970000000        5.0660000000
 H  1.0        36.6410200000       31.8260600000        4.0288900000
 H  1.0        36.2013700000       32.6634300000        5.5264600000
 C  6.0        38.2750000000       32.6860000000        5.0770000000
 H  1.0        38.9588900000       32.1094900000        4.4627800000
 H  1.0        38.1802300000       33.6667100000        4.6086900000
 N  7.0        38.8600000000       32.8060000000        6.4080000000
 H  1.0        39.5185800000       32.1002600000        6.7118100000
 C  6.0        38.6670000000       33.8270000000        7.2430000000
 N  7.0        37.8280000000       34.8150000000        6.9380000000
 H  1.0        37.3052500000       34.7689400000        6.0918400000
 H  1.0        37.6417800000       35.5566400000        7.6135600000
 N  7.0        39.3090000000       33.8560000000        8.4070000000
 H  1.0        39.9221700000       33.0982000000        8.6443100000
 H  1.0        39.1907100000       34.6262500000        9.0482200000
 C  6.0        35.6260000000       28.6780000000        6.5260000000
 O  8.0        35.4180000000       28.8380000000        7.7360000000
 N  7.0        35.8610000000       27.4910000000        5.9710000000
 H  1.0        35.9850400000       27.4247900000        4.9684800000
 C  6.0        35.7680000000       26.2700000000        6.7380000000
 H  1.0        35.2049000000       26.4525600000        7.6540300000
 C  6.0        35.0230000000       25.1850000000        5.9610000000
 H  1.0        34.0171800000       25.5345800000        5.7245300000
 H  1.0        35.5485500000       25.0019100000        5.0224900000
 C  6.0        34.9330000000       23.8580000000        6.7390000000
 H  1.0        35.9193600000       23.5705300000        7.1018600000
 H  1.0        34.2885800000       23.9753100000        7.6016400000
 C  6.0        34.4140000000       22.7080000000        5.9040000000
 O  8.0        33.6060000000       22.8990000000        5.0070000000
 N  7.0        34.8910000000       21.5030000000        6.1930000000
 H  1.0        35.5849200000       21.3704200000        6.9336700000
 H  1.0        34.5810000000       20.7209100000        5.6499100000
 C  6.0        37.1570000000       25.7830000000        7.1360000000
 O  8.0        37.9820000000       25.4780000000        6.2740000000
 N  7.0        37.4070000000       25.7400000000        8.4400000000
 H  1.0        36.6914000000       26.0320700000        9.1009100000
 C  6.0        38.6610000000       25.2110000000        8.9920000000
 H  1.0        39.3954100000       25.0540700000        8.2008700000
 C  6.0        39.2650000000       26.1700000000       10.0240000000
 H  1.0        38.5364500000       26.3519300000       10.8163100000
 H  1.0        40.1250600000       25.6801100000       10.4749900000
 C  6.0        39.7110000000       27.4870000000        9.4640000000
 C  6.0        38.8110000000       28.5340000000        9.2980000000
 H  1.0        37.7769800000       28.3985100000        9.5923500000
 C  6.0        39.2140000000       29.7580000000        8.7410000000
 H  1.0        38.5098300000       30.5668700000        8.6308200000
 C  6.0        40.5310000000       29.9330000000        8.3760000000
 O  8.0        40.9430000000       31.1290000000        7.8430000000
 H  1.0        41.8868400000       31.1095800000        7.6595700000
 C  6.0        41.4390000000       28.9030000000        8.5190000000
 H  1.0        42.4710100000       29.0412300000        8.2292200000
 C  6.0        41.0310000000       27.6860000000        9.0710000000
 H  1.0        41.7550100000       26.8897600000        9.1876800000
 C  6.0        38.3710000000       23.8760000000        9.6700000000
 O  8.0        37.4490000000       23.7710000000       10.4490000000
 N  7.0        39.1430000000       22.8460000000        9.3530000000
 H  1.0        39.9247900000       22.9746600000        8.7297500000
 C  6.0        38.9160000000       21.5340000000        9.9560000000
 H  1.0        37.9190500000       21.4974900000       10.3978700000
 C  6.0        38.9390000000       20.4430000000        8.8810000000
 H  1.0        39.9163100000       20.4399900000        8.3941200000
 H  1.0        38.7914900000       19.4717500000        9.3550600000
 C  6.0        37.8410000000       20.6320000000        7.8370000000
 O  8.0        36.6980000000       20.9770000000        8.2080000000
 O  8.0        38.1170000000       20.4270000000        6.6400000000
 C  6.0        39.9020000000       21.2190000000       11.0820000000
 O  8.0        41.0210000000       21.7490000000       11.1270000000
 N  7.0        39.4620000000       20.3610000000       11.9990000000
 H  1.0        38.5191800000       20.0109800000       11.9221200000
 C  6.0        40.2990000000       19.8800000000       13.0970000000
 H  1.0        39.6595500000       19.3256600000       13.7827500000
 C  6.0        41.3860000000       18.9380000000       12.5680000000
 H  1.0        42.1022400000       19.5101400000       11.9766000000
 H  1.0        41.9331400000       18.5039500000       13.4068700000
 C  6.0        40.8540000000       17.8250000000       11.6850000000
 H  1.0        40.2993000000       18.2287300000       10.8395600000
 H  1.0        41.7017600000       17.2755200000       11.2763100000
 C  6.0        39.9940000000       16.8390000000       12.4430000000
 O  8.0        40.0770000000       16.7510000000       13.6680000000
 N  7.0        39.1830000000       16.0660000000       11.7160000000
 H  1.0        39.1489300000       16.1568500000       10.7157500000
 H  1.0        38.6082300000       15.3967800000       12.1978600000
 C  6.0        40.9300000000       21.0190000000       13.8940000000
 O  8.0        42.1470000000       21.0320000000       14.1410000000
 N  7.0        40.0810000000       21.9520000000       14.3130000000
 H  1.0        39.0979700000       21.8790900000       14.0704700000
 C  6.0        40.4890000000       23.0450000000       15.1770000000
 H  1.0        41.5517200000       23.2229800000       15.0585600000
 C  6.0        39.7550000000       24.3480000000       14.8100000000
 H  1.0        38.6817300000       24.1878700000       14.8991700000
 C  6.0        40.1610000000       25.4780000000       15.7610000000
 H  1.0        39.8594300000       26.4270200000       15.3255600000
 H  1.0        39.6531100000       25.3641300000       16.7198800000
 H  1.0        41.2380800000       25.4916200000       15.9257600000
 C  6.0        40.0570000000       24.7390000000       13.3620000000
 H  1.0        39.7151000000       23.9577100000       12.6824000000
 H  1.0        39.4843400000       25.6353400000       13.1218100000
 C  6.0        41.5500000000       25.0290000000       13.0860000000
 H  1.0        41.6700700000       25.3594200000       12.0559700000
 H  1.0        41.9222400000       25.8208000000       13.7349100000
 H  1.0        42.1507200000       24.1295000000       13.2141100000
 C  6.0        40.1580000000       22.6900000000       16.6270000000
 O  8.0        39.0160000000       22.3420000000       16.9300000000
 N  7.0        41.1600000000       22.7630000000       17.5220000000
 C  6.0        42.6010000000       22.8370000000       17.2310000000
 H  1.0        42.9081700000       23.8799900000       17.1413300000
 H  1.0        42.8801900000       22.2657200000       16.3456200000
 C  6.0        43.2170000000       22.2130000000       18.4410000000
 H  1.0        44.2277100000       22.5855800000       18.6109800000
 H  1.0        43.2374500000       21.1295500000       18.3096700000
 C  6.0        42.3090000000       22.5490000000       19.5760000000
 H  1.0        42.6266800000       23.4996500000       20.0082300000
 H  1.0        42.3330200000       21.7738500000       20.3430400000
 C  6.0        40.9030000000       22.6790000000       18.9660000000
 H  1.0        40.3373700000       21.7739400000       19.1690200000
 C  6.0        40.1870000000       23.9050000000       19.5320000000
 O  8.0        40.6000000000       25.0550000000       19.3010000000
 N  7.0        39.1070000000       23.6430000000       20.2560000000
 H  1.0        38.8198600000       22.6739100000       20.3689500000
 C  6.0        38.4580000000       24.6380000000       21.0950000000
 H  1.0        39.1154300000       25.4950200000       21.2269800000
 C  6.0        37.1200000000       25.1120000000       20.5150000000
 H  1.0        36.4079500000       24.2836800000       20.5309400000
 C  6.0        36.5590000000       26.2480000000       21.3610000000
 H  1.0        35.5410500000       26.4932300000       21.0599300000
 H  1.0        36.4790100000       25.9724400000       22.4075400000
 H  1.0        37.1923200000       27.1314500000       21.2754800000
 C  6.0        37.2680000000       25.5860000000       19.0690000000
 H  1.0        38.1095000000       26.2725400000       19.0005300000
 H  1.0        37.4718800000       24.7262400000       18.4289900000
 C  6.0        36.0160000000       26.2700000000       18.5530000000
 H  1.0        36.1053800000       26.4170100000       17.4823700000
 H  1.0        35.1363900000       25.6575900000       18.7506000000
 H  1.0        35.8945400000       27.2570200000       18.9992600000
 C  6.0        38.1560000000       24.0090000000       22.4530000000
 O  8.0        37.6790000000       22.8780000000       22.5410000000
 N  7.0        38.4230000000       24.7520000000       23.5110000000
 H  1.0        38.8008700000       25.6845800000       23.3768000000
 C  6.0        38.0370000000       24.3180000000       24.8420000000
 H  1.0        37.7837200000       23.2598500000       24.8613400000
 C  6.0        39.1850000000       24.5580000000       25.8040000000
 H  1.0        40.0643200000       24.0603600000       25.3911500000
 H  1.0        39.4043100000       25.6229000000       25.8605200000
 C  6.0        38.9570000000       24.0390000000       27.2010000000
 H  1.0        38.1586300000       24.6121800000       27.6785400000
 H  1.0        38.6392700000       22.9949200000       27.1484300000
 C  6.0        40.2300000000       24.1310000000       28.0120000000
 O  8.0        41.1940000000       23.4150000000       27.6640000000
 O  8.0        40.2880000000       24.9580000000       28.9460000000
 C  6.0        36.8310000000       25.1430000000       25.2490000000
 O  8.0        36.9050000000       26.3610000000       25.3360000000
 N  7.0        35.7120000000       24.4690000000       25.4650000000
 H  1.0        35.7066600000       23.4611200000       25.3727400000
 C  6.0        34.4370000000       25.1530000000       25.6490000000
 H  1.0        34.5250400000       26.2183900000       25.4335700000
 C  6.0        33.3690000000       24.5570000000       24.7040000000
 H  1.0        33.2674400000       23.4978200000       24.9446600000
 C  6.0        32.0170000000       25.2120000000       24.8900000000
 H  1.0        31.2759400000       24.7540800000       24.2359900000
 H  1.0        31.6672800000       25.0795200000       25.9137800000
 H  1.0        32.0739600000       26.2762100000       24.6628500000
 C  6.0        33.8320000000       24.6730000000       23.2510000000
 H  1.0        33.7138800000       25.7018900000       22.9083400000
 H  1.0        34.8824200000       24.4090200000       23.1512900000
 C  6.0        33.0990000000       23.7440000000       22.3100000000
 H  1.0        33.4834600000       23.8810400000       21.2989900000
 H  1.0        33.2604500000       22.7081300000       22.6081400000
 H  1.0        32.0341100000       23.9562700000       22.3070600000
 C  6.0        34.0480000000       24.9650000000       27.1030000000
 O  8.0        33.8290000000       23.8350000000       27.5630000000
 N  7.0        34.0310000000       26.0660000000       27.8390000000
 H  1.0        34.2372200000       26.9633600000       27.4099300000
 C  6.0        33.7170000000       26.0290000000       29.2560000000
 H  1.0        34.0734700000       26.9482200000       29.7207700000
 C  6.0        32.2000000000       25.9230000000       29.4320000000
 H  1.0        31.7161300000       26.6067300000       28.7362800000
 H  1.0        31.8777500000       24.9103300000       29.1801600000
 S 16.0        31.6750000000       26.3260000000       31.0760000000
 H  1.0        30.3619700000       26.1721300000       30.8609700000
 C  6.0        34.4150000000       24.8400000000       29.9230000000
 O  8.0        33.7780000000       24.0720000000       30.6470000000
 N  7.0        35.7020000000       24.6520000000       29.6160000000
 H  1.0        36.1353500000       25.2815300000       28.9570800000
 C  6.0        36.5310000000       23.6510000000       30.2890000000
 H  1.0        37.5465400000       24.0402900000       30.3624600000
 H  1.0        36.1595500000       23.4900900000       31.3013600000
 C  6.0        36.6090000000       22.2940000000       29.6010000000
 O  8.0        37.3920000000       21.4370000000       30.0230000000
 N  7.0        35.8000000000       22.1000000000       28.5580000000
 H  1.0        35.1659600000       22.8434500000       28.2825200000
 C  6.0        35.6950000000       20.8170000000       27.8460000000
 H  1.0        36.2100300000       20.0347300000       28.4051700000
 C  6.0        34.2310000000       20.4140000000       27.7260000000
 H  1.0        33.6554000000       21.2231900000       27.2757800000
 H  1.0        34.1628200000       19.5474100000       27.0670200000
 C  6.0        33.6160000000       20.0480000000       29.0350000000
 N  7.0        33.2530000000       18.7560000000       29.3470000000
 C  6.0        32.7930000000       18.7220000000       30.5880000000
 H  1.0        32.3846500000       17.8525600000       31.0892600000
 N  7.0        32.8660000000       19.9410000000       31.0950000000
 H  1.0        32.5487300000       20.2026300000       32.0192600000
 C  6.0        33.3840000000       20.7870000000       30.1460000000
 H  1.0        33.5717100000       21.8386200000       30.2505200000
 C  6.0        36.3070000000       20.9000000000       26.4440000000
 O  8.0        35.9860000000       21.7960000000       25.6420000000
 N  7.0        37.1570000000       19.9300000000       26.1420000000
 H  1.0        37.3200000000       19.1989200000       26.8174200000
 C  6.0        37.9530000000       19.9480000000       24.9310000000
 H  1.0        38.2256900000       20.9780000000       24.6917900000
 C  6.0        39.2320000000       19.1390000000       25.1530000000
 H  1.0        39.8010300000       19.5818100000       25.9727700000
 H  1.0        38.9761400000       18.1088500000       25.4095500000
 C  6.0        40.0722700000       19.1571900000       23.8805000000
 H  1.0        39.5306700000       18.7028600000       23.0503600000
 H  1.0        40.3291900000       20.1866800000       23.6238300000
 C  6.0        41.3474400000       18.3506100000       24.1018400000
 H  1.0        41.9176300000       18.7903300000       24.9221500000
 H  1.0        41.0877600000       17.3207600000       24.3534000000
 C  6.0        42.1877100000       18.3688100000       22.8293400000
 H  1.0        41.5952000000       17.9364700000       22.0236400000
 H  1.0        42.4339100000       19.4008100000       22.5702300000
 N  7.0        43.4168900000       17.5913100000       23.0426900000
 H  1.0        43.2022200000       16.6390200000       23.2800200000
 H  1.0        43.9826200000       17.5842900000       22.2121100000
 H  1.0        43.9644600000       17.9844700000       23.7876000000
 C  6.0        37.1560000000       19.3820000000       23.7560000000
 O  8.0        36.5200000000       18.3300000000       23.8630000000
 N  7.0        37.1580000000       20.1320000000       22.6610000000
 H  1.0        37.5953600000       21.0467100000       22.6832200000
 C  6.0        36.6830000000       19.6610000000       21.3700000000
 H  1.0        36.4423200000       18.5983800000       21.4299500000
 C  6.0        35.4280000000       20.4070000000       20.9670000000
 H  1.0        35.0008900000       19.9380700000       20.0844800000
 H  1.0        34.6926600000       20.3532500000       21.7707400000
 H  1.0        35.6570500000       21.4541900000       20.7612000000
 C  6.0        37.7640000000       19.8410000000       20.3030000000
 O  8.0        38.6550000000       20.6810000000       20.4510000000
 N  7.0        37.6940000000       19.0260000000       19.2470000000
 H  1.0        36.9391400000       18.3463600000       19.2006200000
 C  6.0        38.5200000000       19.2400000000       18.0520000000
 H  1.0        38.8430400000       20.2760200000       18.0289900000
 C  6.0        39.7830000000       18.3330000000       17.9950000000
 H  1.0        39.4758900000       17.3007400000       17.8161700000
 C  6.0        40.6790000000       18.7830000000       16.8630000000
 H  1.0        41.5067500000       18.0899500000       16.7207800000
 H  1.0        40.1268000000       18.7893100000       15.9258900000
 H  1.0        41.0677500000       19.7835200000       17.0551000000
 C  6.0        40.5730000000       18.3730000000       19.3080000000
 H  1.0        40.8712700000       19.3979800000       19.5316400000
 H  1.0        39.9384700000       18.0144500000       20.1184700000
 C  6.0        41.8220000000       17.4870000000       19.2960000000
 H  1.0        42.2341700000       17.3930900000       20.2945600000
 H  1.0        41.5673800000       16.4904500000       18.9334900000
 H  1.0        42.5936000000       17.9219800000       18.6611600000
 C  6.0        37.6750000000       18.9530000000       16.8210000000
 O  8.0        37.2160000000       17.8250000000       16.6090000000
 N  7.0        37.3990000000       19.9890000000       16.0380000000
 H  1.0        37.7636600000       20.9155700000       16.2452900000
 C  6.0        36.5370000000       19.7830000000       14.8860000000
 H  1.0        36.9190000000       18.9635500000       14.2765400000
 H  1.0        35.5414200000       19.5098700000       15.2388500000
 C  6.0        36.4210000000       21.0030000000       14.0110000000
 O  8.0        37.2960000000       21.8580000000       14.0170000000
 N  7.0        35.3210000000       21.0620000000       13.2710000000
 H  1.0        34.6475900000       20.3156300000       13.3320000000
 C  6.0        35.1450000000       22.0520000000       12.2290000000
 H  1.0        36.1210500000       22.2408300000       11.7871800000
 C  6.0        34.2460000000       21.5020000000       11.0920000000
 H  1.0        33.2558600000       21.2700000000       11.4863000000
 C  6.0        34.1190000000       22.5250000000        9.9400000000
 H  1.0        33.5904600000       22.0606700000        9.1076000000
 H  1.0        33.5506100000       23.3955400000       10.2671700000
 H  1.0        35.1091200000       22.8359000000        9.6073300000
 O  8.0        34.8460000000       20.3110000000       10.5940000000
 H  1.0        35.3927900000       20.5660700000        9.8299700000
 C  6.0        34.6230000000       23.3750000000       12.7670000000
 O  8.0        33.7000000000       23.4300000000       13.5700000000
 N  7.0        35.2670000000       24.4460000000       12.3240000000
 H  1.0        36.0353000000       24.3289100000       11.6677000000
 C  6.0        34.8830000000       25.7880000000       12.6950000000
 H  1.0        33.9475200000       25.7946800000       13.2568000000
 C  6.0        35.9890000000       26.4530000000       13.5560000000
 H  1.0        36.9280000000       26.4288800000       13.0005400000
 C  6.0        35.6580000000       27.8820000000       13.8230000000
 H  1.0        36.4068900000       28.3054800000       14.4908200000
 H  1.0        35.6634300000       28.4650600000       12.9027200000
 H  1.0        34.6769800000       27.9537000000       14.2921100000
 C  6.0        36.2050000000       25.6740000000       14.8540000000
 H  1.0        37.0139700000       26.1320600000       15.4212400000
 H  1.0        35.2859900000       25.6792100000       15.4406300000
 H  1.0        36.4742500000       24.6406800000       14.6413500000
 C  6.0        34.6890000000       26.5680000000       11.3960000000
 O  8.0        35.5730000000       26.5810000000       10.5320000000
 N  7.0        33.4990000000       27.1390000000       11.2350000000
 H  1.0        32.7983600000       27.0503600000       11.9655200000
 C  6.0        33.2190000000       28.0460000000       10.1480000000
 H  1.0        33.9103500000       27.8619700000        9.3292700000
 C  6.0        31.7930000000       27.8340000000        9.6270000000
 H  1.0        31.0967100000       28.1916100000       10.3851300000
 H  1.0        31.6570800000       28.4417600000        8.7349800000
 C  6.0        31.4320000000       26.3800000000        9.3140000000
 H  1.0        31.4848200000       25.7870000000       10.2267900000
 C  6.0        29.9940000000       26.2920000000        8.8070000000
 H  1.0        29.7207800000       25.2476300000        8.6555900000
 H  1.0        29.3154100000       26.7206900000        9.5438000000
 H  1.0        29.9017100000       26.8272800000        7.8666700000
 C  6.0        32.3860000000       25.7670000000        8.2960000000
 H  1.0        32.0421800000       24.7670200000        8.0337600000
 H  1.0        32.4268000000       26.3888700000        7.4028400000
 H  1.0        33.3743500000       25.6890200000        8.7436800000
 C  6.0        33.4150000000       29.4780000000       10.6410000000
 O  8.0        32.9900000000       29.8180000000       11.7470000000
 N  7.0        34.1000000000       30.2880000000        9.8380000000
 H  1.0        34.4961700000       29.9031800000        8.9865600000
 C  6.0        34.3870000000       31.6770000000       10.1800000000
 H  1.0        33.9820500000       31.9031600000       11.1616300000
 C  6.0        35.9070000000       31.9270000000       10.2440000000
 H  1.0        36.3542700000       31.6894100000        9.2777300000
 C  6.0        36.1940000000       33.3880000000       10.5590000000
 H  1.0        37.2653300000       33.5238300000       10.7039800000
 H  1.0        35.8843800000       34.0303800000        9.7347100000
 H  1.0        35.6737300000       33.6797000000       11.4722900000
 C  6.0        36.5560000000       31.0310000000       11.3120000000
 H  1.0        37.6211500000       31.2513600000       11.3789000000
 H  1.0        36.0918400000       31.2126000000       12.2820500000
 H  1.0        36.4392700000       29.9806800000       11.0473700000
 C  6.0        33.7350000000       32.6090000000        9.1590000000
 O  8.0        33.9070000000       32.4360000000        7.9540000000
 N  7.0        32.9770000000       33.5880000000        9.6480000000
 H  1.0        32.8672400000       33.6769400000       10.6576600000
 C  6.0        32.2290000000       34.4670000000        8.7850000000
 H  1.0        32.9291700000       35.0874900000        8.2251700000
 H  1.0        31.6686200000       33.8715900000        8.0751000000
 C  6.0        31.2850000000       35.3770000000        9.5410000000
 O  8.0        31.3170000000       35.4350000000       10.7870000000
 N  7.0        30.4240000000       36.0800000000        8.7900000000
 C  6.0        30.3560000000       35.9810000000        7.3180000000
 H  1.0        30.1046400000       34.9844300000        6.9687100000
 H  1.0        31.3125600000       36.2852900000        6.8903700000
 C  6.0        29.3100000000       36.9800000000        6.9290000000
 H  1.0        28.3656400000       36.4564000000        6.7809100000
 H  1.0        29.5828600000       37.5038100000        6.0121200000
 C  6.0        29.1510000000       37.9160000000        8.0620000000
 H  1.0        28.1600500000       38.3689000000        8.0836000000
 H  1.0        29.8809400000       38.7177100000        7.9384800000
 C  6.0        29.5380000000       37.1260000000        9.3120000000
 H  1.0        30.0850100000       37.7706200000       10.0010100000
 C  6.0        28.2990000000       36.5970000000       10.0330000000
 O  8.0        27.1700000000       36.9950000000        9.7480000000
 N  7.0        28.5290000000       35.7180000000       10.9900000000
 H  1.0        29.4923700000       35.4701200000       11.1913600000
 C  6.0        27.5100000000       35.3740000000       11.9760000000
 H  1.0        26.5899100000       35.1525800000       11.4402800000
 C  6.0        27.9100000000       34.1010000000       12.7360000000
 H  1.0        27.9877900000       33.2805400000       12.0237700000
 C  6.0        29.2570000000       34.2680000000       13.4320000000
 H  1.0        29.4793300000       33.3577200000       13.9842100000
 H  1.0        30.0571500000       34.4168300000       12.7131100000
 H  1.0        29.2386000000       35.0902900000       14.1444700000
 O  8.0        26.9283600000       33.7778200000       13.6843500000
 H  1.0        27.3701300000       33.5807500000       14.5273600000
 C  6.0        27.2910000000       36.5530000000       12.9340000000
 O  8.0        28.2400000000       37.2690000000       13.2980000000
 N  7.0        26.0310000000       36.7860000000       13.3290000000
 C  6.0        24.7938300000       36.0976500000       12.9822500000
 H  1.0        24.9049800000       35.0153400000       12.9707700000
 H  1.0        24.4434400000       36.4494700000       12.0111400000
 C  6.0        23.8010300000       36.5005200000       14.0690400000
 H  1.0        23.9173716989       35.8450878586       14.9334555113
 H  1.0        22.7767900000       36.4844700000       13.7144700000
 C  6.0        24.2365400000       37.9188400000       14.4278000000
 H  1.0        23.9290300000       38.1851600000       15.4404200000
 H  1.0        23.8264300000       38.6380500000       13.7196000000
 C  6.0        25.7580000000       37.8720000000       14.2710000000
 H  1.0        26.0914400000       38.8213300000       13.8503900000
 C  6.0        26.4150000000       37.6980000000       15.6390000000
 O  8.0        26.7250000000       38.6860000000       16.3010000000
 N  7.0        26.6441700000       36.4650500000       16.0711700000
 H  1.0        26.3979100000       35.6834300000       15.4756200000
 C  6.0        27.3332300000       36.1545400000       17.3214800000
 H  1.0        28.0650400000       36.9436700000       17.5114500000
 C  6.0        26.3314600000       36.1199500000       18.5006400000
 H  1.0        25.9207700000       37.1255200000       18.5993100000
 C  6.0        25.1485719762       35.1666365003       18.2949142161
 H  1.0        25.5029286039       34.1453591081       18.1617199259
 H  1.0        24.4890632229       35.2049003101       19.1616498733
 H  1.0        24.5765733667       35.4654110826       17.4179487265
 C  6.0        26.9971400000       35.7787900000       19.8364800000
 H  1.0        26.3724300000       36.1290700000       20.6581300000
 H  1.0        27.1232000000       34.7014700000       19.9339900000
 H  1.0        27.9741500000       36.2502200000       19.8910000000
 C  6.0        28.1049500000       34.8559600000       17.1442000000
 O  8.0        27.7572500000       34.0334000000       16.2980700000
 N  7.0        29.1730000000       34.6730000000       17.9150000000
 H  1.0        29.4408900000       35.3942800000       18.5639400000
 C  6.0        29.8680000000       33.3810000000       17.9580000000
 H  1.0        30.2016900000       33.1178200000       16.9516600000
 C  6.0        31.0730000000       33.3920000000       18.9010000000
 H  1.0        30.7240100000       33.6860300000       19.8850000000
 H  1.0        31.4945100000       32.3920000000       18.9726000000
 C  6.0        32.1910000000       34.3610000000       18.4720000000
 O  8.0        32.4870000000       34.5350000000       17.2860000000
 N  7.0        32.8530000000       34.9570000000       19.4640000000
 H  1.0        33.5489000000       35.6345300000       19.2230000000
 H  1.0        32.5489000000       34.8024300000       20.4207800000
 C  6.0        28.8760000000       32.3200000000       18.4360000000
 O  8.0        28.2470000000       32.4810000000       19.4900000000
 N  7.0        28.6750000000       31.2760000000       17.6340000000
 H  1.0        29.1601200000       31.2108000000       16.7432500000
 C  6.0        27.8090000000       30.1840000000       18.0370000000
 H  1.0        27.4634600000       30.3435000000       19.0578900000
 C  6.0        26.5251900000       30.0762200000       17.1770200000
 H  1.0        25.9484400000       29.2421900000       17.5802600000
 C  6.0        25.6539403568       31.3327826182       17.3364526155
 H  1.0        25.5846135878       31.6131186148       18.3834124782
 H  1.0        26.0787143316       32.1572806178       16.7668214697
 H  1.0        24.6435891617       31.1287526809       16.9790811232
 C  6.0        26.8008100000       29.7694600000       15.6867800000
 H  1.0        27.3719000000       30.5871700000       15.2488500000
 H  1.0        27.3918300000       28.8545400000       15.6144400000
 C  6.0        25.5266300000       29.5642700000       14.8567200000
 H  1.0        25.7926700000       29.2069600000       13.8624600000
 H  1.0        24.8872000000       28.8266100000       15.3403000000
 H  1.0        24.9833781424       30.5036882684       14.7534148675
 C  6.0        28.5530000000       28.8550000000       18.0520000000
 O  8.0        29.3080000000       28.5350000000       17.1200000000
 N  7.0        28.3280000000       28.0940000000       19.1240000000
 H  1.0        27.6725000000       28.4229400000       19.8275600000
 C  6.0        28.7330000000       26.6990000000       19.1790000000
 H  1.0        29.5517600000       26.5249500000       18.4821600000
 C  6.0        29.2020000000       26.2750000000       20.5800000000
 H  1.0        28.3513000000       26.3143300000       21.2598900000
 C  6.0        29.6960000000       24.8340000000       20.5200000000
 H  1.0        30.0352800000       24.5321000000       21.5082300000
 H  1.0        28.8979100000       24.1547700000       20.2308500000
 H  1.0        30.5111600000       24.7371100000       19.8035600000
 C  6.0        30.2680000000       27.2420000000       21.1180000000
 H  1.0        29.8293200000       28.2315300000       21.2421500000
 H  1.0        30.5624800000       26.9049500000       22.1128000000
 C  6.0        31.5320000000       27.3620000000       20.2700000000
 H  1.0        32.2004100000       28.0899700000       20.7226200000
 H  1.0        32.0479700000       26.4043200000       20.2053700000
 H  1.0        31.2896300000       27.7211700000       19.2723600000
 C  6.0        27.5790000000       25.7910000000       18.7770000000
 O  8.0        26.5600000000       25.7120000000       19.4710000000
 N  7.0        27.7560000000       25.0570000000       17.6780000000
 H  1.0        28.6581600000       25.0528400000       17.2171400000
 C  6.0        26.6860000000       24.2020000000       17.1760000000
 H  1.0        25.7128100000       24.5560800000       17.5218000000
 H  1.0        26.6737000000       24.2630500000       16.0882000000
 C  6.0        26.8230000000       22.7510000000       17.5600000000
 O  8.0        27.7900000000       22.3620000000       18.2050000000
 N  7.0        25.9190000000       21.9280000000       17.0330000000
 H  1.0        25.1777900000       22.3382900000       16.4678900000
 C  6.0        25.8410000000       20.5280000000       17.4120000000
 H  1.0        25.6931400000       20.4639600000       18.4827900000
 C  6.0        24.6420000000       19.8620000000       16.7260000000
 H  1.0        24.6823800000       20.0587700000       15.6531100000
 H  1.0        24.7195800000       18.7868100000       16.8857300000
 C  6.0        23.3210000000       20.3360000000       17.3010000000
 H  1.0        23.3725400000       20.3362100000       18.3886100000
 H  1.0        23.1388400000       21.3642200000       16.9880500000
 C  6.0        22.1420000000       19.4790000000       16.8710000000
 H  1.0        22.2303900000       18.4672900000       17.2577300000
 H  1.0        21.2556300000       19.9279200000       17.3131000000
 N  7.0        21.9980000000       19.5050000000       15.4240000000
 H  1.0        21.6042700000       20.3305800000       15.0010600000
 C  6.0        22.4710000000       18.5880000000       14.5880000000
 N  7.0        23.0230000000       17.4650000000       15.0190000000
 H  1.0        23.1619000000       17.3234100000       16.0121900000
 H  1.0        23.3653300000       16.7826200000       14.3719100000
 N  7.0        22.3460000000       18.7910000000       13.2950000000
 H  1.0        21.9604500000       19.6611200000       12.9288700000
 H  1.0        22.6990400000       18.1113000000       12.6561200000
 C  6.0        27.1160000000       19.7310000000       17.1070000000
 O  8.0        27.4260000000       18.7850000000       17.8320000000
 N  7.0        27.8860000000       20.1460000000       16.1070000000
 H  1.0        27.5957700000       20.9453900000       15.5567500000
 C  6.0        29.0890000000       19.4000000000       15.7310000000
 H  1.0        28.7950700000       18.3684700000       15.5319400000
 C  6.0        29.7240000000       19.9670000000       14.4440000000
 H  1.0        30.4444400000       19.2432400000       14.0656100000
 H  1.0        28.9565600000       20.1129000000       13.6837000000
 C  6.0        30.4320000000       21.2980000000       14.6750000000
 O  8.0        29.8170000000       22.2590000000       15.1390000000
 N  7.0        31.7340000000       21.3550000000       14.3650000000
 H  1.0        32.2229000000       22.2387000000       14.4510700000
 H  1.0        32.2043300000       20.5460600000       14.0162100000
 C  6.0        30.1020000000       19.3550000000       16.8790000000
 O  8.0        30.8060000000       18.3610000000       17.0470000000
 N  7.0        30.1320000000       20.4030000000       17.7000000000
 H  1.0        29.5284900000       21.1971500000       17.5088000000
 C  6.0        31.0160000000       20.4480000000       18.8660000000
 H  1.0        31.7649000000       19.6593200000       18.8022600000
 C  6.0        31.7530000000       21.7840000000       18.9070000000
 H  1.0        31.0101100000       22.5763400000       19.0040700000
 H  1.0        32.3638600000       21.7961100000       19.8110700000
 C  6.0        32.6600000000       22.1310000000       17.7250000000
 H  1.0        32.0356800000       22.2836000000       16.8501600000
 C  6.0        33.3940000000       23.4450000000       18.0040000000
 H  1.0        33.9392500000       23.7518500000       17.1114100000
 H  1.0        32.6709500000       24.2196900000       18.2584400000
 H  1.0        34.0911500000       23.3163100000       18.8309100000
 C  6.0        33.6730000000       21.0210000000       17.4010000000
 H  1.0        34.2832900000       21.3403600000       16.5571100000
 H  1.0        34.3186900000       20.8460200000       18.2537700000
 H  1.0        33.1575000000       20.1033200000       17.1225000000
 C  6.0        30.2720000000       20.2080000000       20.1890000000
 O  8.0        30.8650000000       19.7060000000       21.1540000000
 N  7.0        28.9790000000       20.5400000000       20.2400000000
 H  1.0        28.5578900000       21.0366900000       19.4607600000
 C  6.0        28.1910000000       20.2680000000       21.4440000000
 H  1.0        28.6639400000       20.7623800000       22.2903600000
 C  6.0        26.7570000000       20.7900000000       21.3120000000
 H  1.0        26.3269300000       20.3586300000       20.4153000000
 H  1.0        26.1704200000       20.4091700000       22.1462700000
 C  6.0        26.5770000000       22.3020000000       21.2800000000
 H  1.0        27.2344900000       22.7260900000       20.5342500000
 C  6.0        25.1240000000       22.6690000000       20.8980000000
 H  1.0        25.0459400000       23.7512500000       20.7806000000
 H  1.0        24.8510300000       22.2101100000       19.9497100000
 H  1.0        24.4397200000       22.3511500000       21.6820600000
 C  6.0        26.9410000000       22.9180000000       22.6200000000
 H  1.0        26.7149000000       23.9819500000       22.5667900000
 H  1.0        26.3507800000       22.4715400000       23.4187500000
 H  1.0        28.0034000000       22.7959100000       22.8222400000
 C  6.0        28.1680000000       18.7750000000       21.7540000000
 O  8.0        28.2330000000       18.3780000000       22.9130000000
 N  7.0        28.0590000000       17.9520000000       20.7180000000
 H  1.0        27.9652700000       18.3442500000       19.7875900000
 C  6.0        28.1270000000       16.5150000000       20.8880000000
 H  1.0        27.3797800000       16.2106000000       21.6210500000
 C  6.0        27.8460000000       15.7590000000       19.5710000000
 H  1.0        27.9805100000       14.6895500000       19.7388200000
 C  6.0        26.4100000000       16.0020000000       19.1250000000
 H  1.0        26.2689800000       15.5831800000       18.1296000000
 H  1.0        25.7362500000       15.5006500000       19.8182100000
 H  1.0        26.1645000000       17.0612000000       19.1030400000
 O  8.0        28.7590000000       16.1770000000       18.5440000000
 H  1.0        28.4230200000       17.0149500000       18.1917500000
 C  6.0        29.4840000000       16.0800000000       21.4200000000
 O  8.0        29.5540000000       15.1880000000       22.2540000000
 N  7.0        30.5610000000       16.7260000000       20.9850000000
 H  1.0        30.4626300000       17.4817500000       20.3220700000
 C  6.0        31.8880000000       16.3360000000       21.4660000000
 H  1.0        32.0150600000       15.2650900000       21.3023800000
 C  6.0        33.0090000000       17.0660000000       20.7210000000
 H  1.0        32.8731500000       18.1453100000       20.7836800000
 H  1.0        33.9339400000       16.8196600000       21.2447000000
 C  6.0        33.1570000000       16.6550000000       19.2640000000
 H  1.0        33.0634300000       15.5724600000       19.1798900000
 H  1.0        32.3555600000       17.1098000000       18.6846500000
 C  6.0        34.4970000000       17.0480000000       18.6750000000
 O  8.0        35.4590000000       17.3530000000       19.4020000000
 N  7.0        34.5740000000       17.0400000000       17.3500000000
 H  1.0        33.7623200000       16.8475100000       16.7915100000
 H  1.0        35.4690600000       17.2788700000       16.9366500000
 C  6.0        32.0650000000       16.5740000000       22.9630000000
 O  8.0        32.7600000000       15.8030000000       23.6210000000
 N  7.0        31.5180000000       17.6800000000       23.4680000000
 H  1.0        31.0377300000       18.3220400000       22.8441700000
 C  6.0        31.6450000000       18.0210000000       24.8810000000
 H  1.0        32.5959700000       17.6303300000       25.2445300000
 C  6.0        31.6800000000       19.5440000000       25.1150000000
 H  1.0        31.9402000000       19.7075000000       26.1610400000
 C  6.0        32.7530000000       20.1930000000       24.2730000000
 H  1.0        32.9515900000       21.2013600000       24.6319300000
 H  1.0        33.6819700000       19.6262600000       24.3476500000
 H  1.0        32.4492000000       20.2412200000       23.2269400000
 C  6.0        30.3120000000       20.1790000000       24.8780000000
 H  1.0        30.0344500000       20.0507600000       23.8352700000
 H  1.0        29.5577200000       19.6973000000       25.4968700000
 C  6.0        30.2670000000       21.6530000000       25.2100000000
 H  1.0        29.2367800000       22.0045800000       25.1439100000
 H  1.0        30.6320800000       21.8217300000       26.2237300000
 H  1.0        30.8692600000       22.2224000000       24.5025300000
 C  6.0        30.5600000000       17.3950000000       25.7730000000
 O  8.0        30.5020000000       17.6850000000       26.9700000000
 N  7.0        29.7170000000       16.5430000000       25.1890000000
 H  1.0        29.7981000000       16.3846900000       24.1928500000
 C  6.0        28.7760000000       15.7300000000       25.9520000000
 H  1.0        28.5159300000       14.8561500000       25.3556200000
 H  1.0        29.2469400000       15.3905800000       26.8750400000
 C  6.0        27.4880000000       16.4440000000       26.3100000000
 O  8.0        26.8090000000       16.0740000000       27.2690000000
 N  7.0        27.1550000000       17.4820000000       25.5510000000
 H  1.0        27.7174800000       17.7079900000       24.7377700000
 C  6.0        26.0660000000       18.3770000000       25.9030000000
 H  1.0        25.9688500000       18.4529900000       26.9542500000
 C  6.0        26.3320000000       19.7560000000       25.2810000000
 H  1.0        27.3210900000       20.0903200000       25.5937500000
 H  1.0        26.3407900000       19.6516300000       24.1974300000
 S 16.0        25.1800000000       21.0170000000       25.7230000000
 H  1.0        24.0940600000       20.4925900000       25.1406300000
 C  6.0        24.7150000000       17.7800000000       25.4790000000
 O  8.0        24.5820000000       17.2510000000       24.3710000000
 N  7.0        23.7530000000       17.7600000000       26.4080000000
 H  1.0        23.9478700000       18.1055100000       27.3426500000
 C  6.0        22.3860000000       17.3150000000       26.1070000000
 H  1.0        22.2555900000       17.2048100000       25.0307800000
 C  6.0        22.0730000000       15.9540000000       26.7650000000
 H  1.0        21.0362700000       15.6942100000       26.5537000000
 C  6.0        22.9690000000       14.8250000000       26.1900000000
 H  1.0        22.5766300000       13.8546300000       26.4906000000
 H  1.0        22.9914200000       14.8913500000       25.1062500000
 H  1.0        23.9864200000       14.9383500000       26.5665900000
 O  8.0        22.2460000000       16.0560000000       28.1890000000
 H  1.0        22.3631500000       15.1653500000       28.5343200000
 C  6.0        21.3280000000       18.3080000000       26.5800000000
 O  8.0        21.5840000000       19.1800000000       27.4170000000
 N  7.0        20.1330000000       18.1870000000       26.0200000000
 H  1.0        19.9707000000       17.4481000000       25.3442300000
 C  6.0        18.9850000000       18.9120000000       26.5440000000
 H  1.0        19.3076300000       19.7804000000       27.1139800000
 C  6.0        18.0770000000       19.3800000000       25.4070000000
 H  1.0        17.8953200000       18.5288500000       24.7652200000
 H  1.0        17.1149700000       19.6941000000       25.8152300000
 C  6.0        18.6370000000       20.5100000000       24.5460000000
 H  1.0        19.7009100000       20.3399100000       24.3791700000
 C  6.0        17.9520000000       20.5140000000       23.1900000000
 H  1.0        18.3145600000       21.3534600000       22.5969300000
 H  1.0        18.1627600000       19.5856300000       22.6613200000
 H  1.0        16.8764200000       20.6221100000       23.3243300000
 C  6.0        18.4640000000       21.8510000000       25.2690000000
 H  1.0        19.0287500000       22.6057800000       24.7316100000
 H  1.0        17.4188400000       22.1442100000       25.2562600000
 H  1.0        18.8360600000       21.7979400000       26.2910500000
 C  6.0        18.2280000000       17.9760000000       27.4690000000
 O  8.0        18.1210000000       16.7810000000       27.1950000000
 N  7.0        17.7170000000       18.5180000000       28.5650000000
 H  1.0        17.9055600000       19.4985700000       28.7566300000
 C  6.0        16.9910000000       17.7380000000       29.5620000000
 H  1.0        16.6359400000       16.8146800000       29.1111700000
 C  6.0        17.9080000000       17.3870000000       30.7290000000
 H  1.0        18.2683700000       18.3032600000       31.1992000000
 H  1.0        17.3456800000       16.8229300000       31.4717000000
 C  6.0        19.0980000000       16.5440000000       30.3040000000
 O  8.0        19.0270000000       15.3190000000       30.2860000000
 N  7.0        20.1720000000       17.2040000000       29.9100000000
 H  1.0        20.9290100000       16.7177600000       29.4495800000
 H  1.0        20.2041000000       18.2121000000       30.0134200000
 C  6.0        15.7890000000       18.5050000000       30.1060000000
 O  8.0        15.9030000000       19.6660000000       30.4980000000
 N  7.0        14.6370000000       17.8500000000       30.1230000000
 H  1.0        14.6109500000       16.8807700000       29.8274300000
 C  6.0        13.4800000000       18.3790000000       30.8250000000
 H  1.0        13.7979300000       18.9005600000       31.7275400000
 C  6.0        12.7050000000       19.3610000000       29.9370000000
 H  1.0        11.8503400000       19.7432100000       30.4932200000
 H  1.0        13.3049500000       20.1887300000       29.6760800000
 C  6.0        12.2460000000       18.7800000000       28.6340000000
 C  6.0        13.1340000000       18.6240000000       27.5810000000
 H  1.0        14.1576000000       18.9538500000       27.6880400000
 C  6.0        12.7140000000       18.1060000000       26.3770000000
 H  1.0        13.3865900000       18.1016100000       25.5484900000
 C  6.0        11.3880000000       17.7460000000       26.2050000000
 H  1.0        11.0536900000       17.3816900000       25.2467200000
 C  6.0        10.4910000000       17.9060000000       27.2410000000
 H  1.0         9.4489400000       17.6630100000       27.0937100000
 C  6.0        10.9200000000       18.4290000000       28.4460000000
 H  1.0        10.2136800000       18.5713700000       29.2533000000
 C  6.0        12.6040000000       17.2220000000       31.2710000000
 O  8.0        13.1200000000       16.1260000000       31.4760000000
 O  8.0        11.3880000000       17.3470000000       31.4320000000
 N  7.0        12.8060000000       13.8370000000       29.8740000000
 H  1.0        13.3328400000       14.6195500000       30.2669000000
 H  1.0        12.5766100000       13.2436500000       30.6538200000
 C  6.0        11.5820000000       14.3930000000       29.2740000000
 H  1.0        11.3712400000       15.4004400000       29.6433700000
 H  1.0        10.7390400000       13.7289900000       29.4696400000
 C  6.0        11.8960000000       14.3900000000       27.8070000000
 H  1.0        12.4378700000       15.3072900000       27.5595800000
 H  1.0        10.9882700000       14.3291200000       27.2043500000
 C  6.0        12.7810000000       13.2110000000       27.6090000000
 H  1.0        13.3916000000       13.3164100000       26.7094600000
 H  1.0        12.1695700000       12.3103400000       27.5302000000
 C  6.0        13.6230000000       13.1300000000       28.8880000000
 H  1.0        13.7809900000       12.0921300000       29.1784800000
 C  6.0        14.9720000000       13.8040000000       28.6690000000
 O  8.0        15.1520000000       14.9610000000       29.0540000000
 N  7.0        15.9070000000       13.0700000000       28.0710000000
 H  1.0        15.6930100000       12.1305100000       27.7701500000
 C  6.0        17.1950000000       13.6350000000       27.6790000000
 H  1.0        17.2501700000       14.6844600000       27.9632400000
 C  6.0        18.3410000000       12.9050000000       28.3770000000
 H  1.0        18.2164700000       13.0155400000       29.4544500000
 H  1.0        18.2946400000       11.8402500000       28.1419000000
 C  6.0        19.7110000000       13.4420000000       27.9590000000
 H  1.0        19.9153100000       13.1640700000       26.9248600000
 H  1.0        19.7132900000       14.5289900000       28.0166900000
 C  6.0        20.8230000000       12.8970000000       28.8200000000
 O  8.0        21.5040000000       11.9520000000       28.4300000000
 N  7.0        20.9920000000       13.4650000000       30.0110000000
 H  1.0        20.3641100000       14.2154800000       30.2864200000
 H  1.0        21.7054300000       13.1216400000       30.6259300000
 C  6.0        17.3710000000       13.5210000000       26.1680000000
 O  8.0        17.1550000000       12.4610000000       25.5930000000
 N  7.0        17.7420000000       14.6220000000       25.5330000000
 H  1.0        17.9262700000       15.4646000000       26.0682300000
 C  6.0        17.8450000000       14.6820000000       24.0810000000
 H  1.0        17.5156200000       13.7492100000       23.6225900000
 C  6.0        16.9590000000       15.8160000000       23.5390000000
 H  1.0        17.2116500000       16.7280700000       24.0634000000
 C  6.0        17.1710000000       16.0250000000       22.0420000000
 H  1.0        16.4599400000       16.7587200000       21.6624500000
 H  1.0        18.1711900000       16.4161000000       21.8520700000
 H  1.0        17.0419100000       15.0879200000       21.4995800000
 C  6.0        15.4910000000       15.4730000000       23.8070000000
 H  1.0        15.1238700000       14.7796600000       23.0486300000
 H  1.0        15.3844800000       14.9745000000       24.7691000000
 C  6.0        14.5900000000       16.6600000000       23.8740000000
 H  1.0        13.6138200000       16.3464900000       24.2438800000
 H  1.0        15.0415500000       17.4065800000       24.5261900000
 H  1.0        14.4654300000       17.0810000000       22.8772000000
 C  6.0        19.3000000000       14.9040000000       23.7160000000
 O  8.0        19.8790000000       15.9170000000       24.1120000000
 N  7.0        19.9180000000       13.9330000000       23.0350000000
 H  1.0        19.4072800000       13.1267900000       22.7087600000
 C  6.0        21.2890000000       14.1300000000       22.5680000000
 H  1.0        21.8613400000       14.6948500000       23.2994100000
 C  6.0        22.0430000000       12.8200000000       22.2520000000
 H  1.0        22.9822400000       13.0552100000       21.7501500000
 C  6.0        22.4030000000       12.0360000000       23.5480000000
 H  1.0        22.9107400000       11.1088300000       23.2836300000
 H  1.0        23.0700100000       12.6360200000       24.1652600000
 H  1.0        21.4974300000       11.8074000000       24.1103700000
 O  8.0        21.2460000000       12.0330000000       21.3600000000
 H  1.0        21.4694200000       11.1114400000       21.5245100000
 C  6.0        21.2380000000       14.9440000000       21.2870000000
 O  8.0        20.1820000000       15.1250000000       20.6760000000
 N  7.0        22.3860000000       15.4710000000       20.9060000000
 H  1.0        23.2098300000       15.3347100000       21.4723400000
 C  6.0        22.4420000000       16.4420000000       19.8250000000
 H  1.0        21.4405900000       16.6985700000       19.4779400000
 C  6.0        23.1270000000       17.7290000000       20.3120000000
 H  1.0        24.1413500000       17.4862700000       20.6315200000
 H  1.0        23.1924300000       18.4446700000       19.4985000000
 C  6.0        22.3770000000       18.3690000000       21.4850000000
 H  1.0        22.1995300000       17.6243000000       22.2602900000
 C  6.0        23.1990000000       19.4550000000       22.1390000000
 H  1.0        22.6563400000       19.8660300000       22.9906000000
 H  1.0        24.1429300000       19.0420300000       22.4921000000
 H  1.0        23.3970100000       20.2470000000       21.4186200000
 C  6.0        21.0070000000       18.9030000000       21.0260000000
 H  1.0        20.5352100000       19.4333800000       21.8529900000
 H  1.0        21.1308700000       19.5941700000       20.1923300000
 H  1.0        20.3515300000       18.0831200000       20.7365300000
 C  6.0        23.1400000000       15.8470000000       18.6120000000
 O  8.0        23.6200000000       16.5740000000       17.7470000000
 N  7.0        23.1390000000       14.5150000000       18.5130000000
 H  1.0        22.7317600000       13.9647700000       19.2536500000
 C  6.0        23.6630000000       13.8460000000       17.3180000000
 H  1.0        24.6969200000       14.1445700000       17.1475300000
 C  6.0        23.5810000000       12.3310000000       17.4400000000
 H  1.0        22.5508200000       12.0482100000       17.6645000000
 H  1.0        23.8318100000       11.8936400000       16.4721000000
 C  6.0        24.4780000000       11.7030000000       18.4450000000
 C  6.0        24.0940000000       10.9950000000       19.5530000000
 H  1.0        23.0662000000       10.8288500000       19.8508300000
 N  7.0        25.1960000000       10.4960000000       20.1920000000
 H  1.0        25.1637500000        9.9317300000       21.0325100000
 C  6.0        26.3270000000       10.8680000000       19.5110000000
 C  6.0        27.6710000000       10.6080000000       19.7840000000
 H  1.0        27.9610000000       10.0273500000       20.6477700000
 C  6.0        28.5990000000       11.1330000000       18.9380000000
 H  1.0        29.6504900000       10.9597300000       19.1276100000
 C  6.0        28.2170000000       11.8730000000       17.8050000000
 H  1.0        28.9806500000       12.2673300000       17.1468700000
 C  6.0        26.8850000000       12.1450000000       17.5430000000
 H  1.0        26.6001700000       12.7353600000       16.6841100000
 C  6.0        25.9140000000       11.6290000000       18.4000000000
 C  6.0        22.8490000000       14.2490000000       16.0840000000
 O  8.0        23.3740000000       14.2840000000       14.9670000000
 N  7.0        21.5530000000       14.4730000000       16.2940000000
 H  1.0        21.2151400000       14.4706100000       17.2469500000
 C  6.0        20.6550000000       14.9540000000       15.2450000000
 H  1.0        21.2284400000       15.2542400000       14.3670600000
 C  6.0        19.6510000000       13.8700000000       14.8300000000
 H  1.0        19.1448300000       14.1957200000       13.9197800000
 H  1.0        20.2075400000       12.9630000000       14.5869900000
 C  6.0        18.5830000000       13.5310000000       15.8800000000
 H  1.0        19.0579600000       13.2938500000       16.8330200000
 H  1.0        17.9411300000       14.3986400000       16.0212100000
 C  6.0        17.7040000000       12.3430000000       15.4530000000
 H  1.0        17.4597600000       12.4457000000       14.3945600000
 H  1.0        18.2635700000       11.4169400000       15.5926600000
 C  6.0        16.3890000000       12.2810000000       16.2400000000
 H  1.0        16.6215400000       12.2109900000       17.3045700000
 H  1.0        15.8385000000       13.2103100000       16.0772400000
 N  7.0        15.5340000000       11.1120000000       15.8370000000
 H  1.0        14.6807900000       11.0957800000       16.3674800000
 H  1.0        15.2923200000       11.1636000000       14.8634600000
 H  1.0        16.0146500000       10.2445400000       15.9962000000
 C  6.0        19.9330000000       16.1890000000       15.7650000000
 O  8.0        20.0210000000       16.5080000000       16.9490000000
 N  7.0        19.2620000000       16.8990000000       14.8660000000
 H  1.0        19.2439400000       16.5799400000       13.9105200000
 C  6.0        18.5640000000       18.1090000000       15.2300000000
 H  1.0        19.3064200000       18.8064300000       15.6104800000
 C  6.0        17.8840000000       18.7440000000       14.0120000000
 H  1.0        17.2657900000       17.9896100000       13.5211300000
 H  1.0        17.2267100000       19.5402200000       14.3540900000
 C  6.0        18.8853200000       19.3359900000       12.9994100000
 H  1.0        19.3775100000       20.2041200000       13.4408400000
 H  1.0        19.6298700000       18.5870500000       12.7636400000
 C  6.0        18.2322900000       19.7320300000       11.6711400000
 H  1.0        17.8052800000       18.8333300000       11.2237000000
 H  1.0        17.4388100000       20.4575000000       11.8596800000
 N  7.0        19.2042300000       20.3025100000       10.7168300000
 H  1.0        20.0708279804       20.6923932946       11.0902953705
 C  6.0        19.0512400000       20.3659500000        9.4050600000
 N  7.0        18.0340000000       19.8252200000        8.8059400000
 H  1.0        17.4061300000       19.2829100000        9.3559100000
 H  1.0        17.9518200000       19.8814600000        7.8121100000
 N  7.0        19.9072455857       20.9497269902        8.6329837010
 H  1.0        20.7756036601       21.2895957149        9.0457004200
 H  1.0        19.7772343853       20.9596193629        7.6448327079
 C  6.0        17.5450000000       17.7630000000       16.3130000000
 O  8.0        16.8630000000       16.7480000000       16.2300000000
 N  7.0        17.4680000000       18.5960000000       17.3540000000
 C  6.0        18.3350000000       19.7730000000       17.5750000000
 H  1.0        18.3020200000       20.4820400000       16.7473200000
 H  1.0        19.3487800000       19.4282000000       17.7625100000
 C  6.0        17.7970000000       20.3920000000       18.8280000000
 H  1.0        17.0618300000       21.1557000000       18.5677400000
 H  1.0        18.5913100000       20.8315700000       19.4295700000
 C  6.0        17.1110000000       19.2630000000       19.5550000000
 H  1.0        16.3751700000       19.6195200000       20.2763400000
 H  1.0        17.8684900000       18.6892900000       20.0915500000
 C  6.0        16.5370000000       18.3850000000       18.4470000000
 H  1.0        16.5456200000       17.3424700000       18.7677900000
 C  6.0        15.1010000000       18.7850000000       18.0950000000
 O  8.0        14.5550000000       19.7100000000       18.6840000000
 N  7.0        14.4970000000       18.0380000000       17.1760000000
 H  1.0        15.0104400000       17.2643600000       16.7716900000
 C  6.0        13.1230000000       18.2720000000       16.7480000000
 H  1.0        12.9103800000       19.3307000000       16.8065000000
 C  6.0        12.9210000000       17.7630000000       15.3240000000
 H  1.0        13.2400400000       16.7206500000       15.2715400000
 H  1.0        11.8593400000       17.8048600000       15.0720900000
 C  6.0        13.7020000000       18.5870000000       14.3010000000
 H  1.0        14.7519600000       18.6161300000       14.5926100000
 C  6.0        13.6500000000       17.9320000000       12.9320000000
 H  1.0        14.2301400000       18.5231200000       12.2240500000
 H  1.0        14.0727200000       16.9290500000       12.9869200000
 H  1.0        12.6164700000       17.8736200000       12.5904800000
 C  6.0        13.1810000000       20.0440000000       14.2700000000
 H  1.0        13.7098100000       20.6009700000       13.4973200000
 H  1.0        12.1149000000       20.0532300000       14.0431500000
 H  1.0        13.3449300000       20.5487000000       15.2154700000
 C  6.0        12.1400000000       17.5530000000       17.6510000000
 O  8.0        12.3570000000       16.4090000000       18.0290000000
 N  7.0        11.0450000000       18.2260000000       17.9750000000
 H  1.0        10.9544000000       19.2013700000       17.7026900000
 C  6.0        10.0000000000       17.6270000000       18.7860000000
 H  1.0        10.0220800000       16.5403600000       18.7040900000
 C  6.0        10.0940000000       18.0260000000       20.2720000000
 H  1.0         9.2649800000       17.5292900000       20.7577300000
 C  6.0        11.4000000000       17.5300000000       20.8880000000
 H  1.0        11.3775100000       17.6932800000       21.9633800000
 H  1.0        11.5192900000       16.4639700000       20.6972000000
 H  1.0        12.2481700000       18.0720900000       20.4680600000
 C  6.0         9.9370000000       19.5360000000       20.4530000000
 H  1.0         9.9337900000       19.7445000000       21.5187200000
 H  1.0        10.7601600000       20.0727300000       19.9797400000
 H  1.0         8.9887900000       19.8977100000       20.0588500000
 C  6.0         8.6850000000       18.1130000000       18.2500000000
 O  8.0         8.6270000000       19.1450000000       17.5810000000
 N  7.0         7.6240000000       17.3830000000       18.5710000000
 H  1.0         7.7349300000       16.5345200000       19.1021800000
 C  6.0         6.2940000000       17.7880000000       18.1590000000
 H  1.0         6.3518100000       18.1859900000       17.1455500000
 C  6.0         5.3460000000       16.5820000000       18.1170000000
 H  1.0         5.2512300000       16.1532800000       19.1154500000
 C  6.0         3.9660000000       16.9950000000       17.6110000000
 H  1.0         3.3566700000       16.1038600000       17.4624500000
 H  1.0         3.4675500000       17.6349500000       18.3388300000
 H  1.0         4.0587700000       17.5267700000       16.6628300000
 O  8.0         5.8960000000       15.5990000000       17.2380000000
 H  1.0         5.9337900000       15.9896600000       16.3604500000
 C  6.0         5.7360000000       18.8850000000       19.0740000000
 O  8.0         5.8120000000       18.7900000000       20.3010000000
 N  7.0         5.2180000000       19.9490000000       18.4670000000
 H  1.0         5.2202800000       20.0013400000       17.4534600000
 C  6.0         4.5080000000       20.9850000000       19.2180000000
 H  1.0         4.4789000000       20.6989700000       20.2626400000
 C  6.0         5.2060000000       22.3740000000       19.1290000000
 H  1.0         4.7104200000       23.0349000000       19.8422100000
 C  6.0         6.6820000000       22.2660000000       19.5300000000
 H  1.0         7.0948800000       23.2465000000       19.7198700000
 H  1.0         6.7594200000       21.6774100000       20.4400500000
 H  1.0         7.2542400000       21.7650600000       18.7485700000
 C  6.0         5.0690000000       22.9800000000       17.7310000000
 H  1.0         5.6103300000       22.3738900000       17.0045400000
 H  1.0         4.0213900000       23.0040000000       17.4365500000
 C  6.0         5.5400000000       24.3880000000       17.6300000000
 H  1.0         5.1468000000       24.8326500000       16.7150300000
 H  1.0         5.1956600000       24.9744400000       18.4827800000
 H  1.0         6.6211600000       24.4088600000       17.5661300000
 C  6.0         3.0660000000       21.0840000000       18.7230000000
 O  8.0         2.7560000000       20.7070000000       17.5930000000
 N  7.0         2.1880000000       21.6070000000       19.5680000000
 H  1.0         2.4966200000       21.8815900000       20.4963500000
 C  6.0         0.8360000000       21.9090000000       19.1420000000
 H  1.0         0.7455600000       21.7527800000       18.0680700000
 C  6.0        -0.1780000000       21.0060000000       19.8260000000
 H  1.0         0.0956800000       19.9673000000       19.6333900000
 H  1.0        -0.1540000000       21.1820400000       20.8934100000
 C  6.0        -1.5890000000       21.2590000000       19.3430000000
 H  1.0        -1.9147000000       22.2444700000       19.6727400000
 H  1.0        -1.6192200000       21.2633000000       18.2563500000
 C  6.0        -2.5330000000       20.1990000000       19.8610000000
 H  1.0        -3.4667600000       20.2401000000       19.2975700000
 H  1.0        -2.0957200000       19.2108700000       19.7109100000
 N  7.0        -2.8020000000       20.4010000000       21.2790000000
 H  1.0        -2.3425100000       19.8072100000       21.9457800000
 C  6.0        -3.5960000000       21.3540000000       21.7610000000
 N  7.0        -4.1840000000       22.2290000000       20.9470000000
 H  1.0        -3.9990300000       22.1641500000       19.9746900000
 H  1.0        -4.7126100000       22.9809700000       21.3403600000
 N  7.0        -3.7800000000       21.4530000000       23.0700000000
 H  1.0        -3.2766300000       20.8479700000       23.6849500000
 H  1.0        -4.2695200000       22.2475000000       23.4285600000
 C  6.0         0.4800000000       23.3560000000       19.4150000000
 O  8.0         0.6690000000       23.8710000000       20.5210000000
 N  7.0        -0.1000000000       23.9780000000       18.4010000000
 H  1.0        -0.1866400000       23.4984100000       17.5110700000
 C  6.0        -0.6100000000       25.3230000000       18.5240000000
 H  1.0        -0.7831500000       25.5639700000       19.5756100000
 C  6.0         0.4400000000       26.3340000000       17.9950000000
 H  1.0         1.2090800000       26.4070200000       18.7645900000
 C  6.0         1.1400000000       25.7940000000       16.7390000000
 H  1.0         1.8352000000       26.5356200000       16.3488400000
 H  1.0         1.7332800000       24.9077200000       16.9646700000
 H  1.0         0.4131900000       25.5620400000       15.9630800000
 C  6.0        -0.1620000000       27.7260000000       17.8150000000
 H  1.0        -0.8316200000       27.7367800000       16.9540900000
 H  1.0        -0.7399400000       27.9733600000       18.7070300000
 C  6.0         0.8900000000       28.8050000000       17.6340000000
 H  1.0         0.4154800000       29.7822400000       17.6758100000
 H  1.0         1.6203400000       28.7468200000       18.4338000000
 H  1.0         1.3859900000       28.7016200000       16.6709200000
 C  6.0        -1.9660000000       25.3490000000       17.8160000000
 O  8.0        -2.0540000000       25.2320000000       16.5930000000
 N  7.0        -3.0200000000       25.3530000000       18.6260000000
 H  1.0        -2.8515300000       25.3916200000       19.6212800000
 C  6.0        -4.4090000000       25.3240000000       18.1580000000
 H  1.0        -5.0502900000       25.1129100000       19.0131500000
 H  1.0        -4.6662500000       26.3177400000       17.7909700000
 C  6.0        -4.7630000000       24.3250000000       17.0650000000
 O  8.0        -5.3120000000       24.6970000000       16.0240000000
 N  7.0        -4.4730000000       23.0490000000       17.2790000000
 H  1.0        -3.9681000000       22.7842200000       18.1055700000
 C  6.0        -4.8470000000       22.0460000000       16.2800000000
 H  1.0        -4.6490500000       21.0547700000       16.6865300000
 H  1.0        -5.9114600000       22.1243800000       16.0564400000
 C  6.0        -4.0670000000       22.1840000000       14.9830000000
 O  8.0        -4.5570000000       21.8420000000       13.9040000000
 N  7.0        -2.8710000000       22.7510000000       15.0850000000
 H  1.0        -2.5922200000       23.1769400000       15.9594300000
 C  6.0        -1.8330000000       22.5320000000       14.0970000000
 H  1.0        -2.1904700000       21.9060300000       13.2780100000
 C  6.0        -1.3240000000       23.8590000000       13.5260000000
 H  1.0        -0.9946900000       24.4865700000       14.3527500000
 H  1.0        -0.4492000000       23.6696700000       12.9025100000
 C  6.0        -2.3710000000       24.6400000000       12.7220000000
 H  1.0        -3.3541900000       24.5463800000       13.1835400000
 H  1.0        -2.1048300000       25.6962000000       12.7547100000
 C  6.0        -2.4300000000       24.2440000000       11.2570000000
 O  8.0        -1.4250000000       24.3090000000       10.5530000000
 N  7.0        -3.6170000000       23.8670000000       10.7810000000
 H  1.0        -4.4100100000       23.7965700000       11.3963400000
 H  1.0        -3.6832100000       23.6084800000        9.8121300000
 C  6.0        -0.7410000000       21.7980000000       14.8500000000
 O  8.0        -0.3160000000       22.2260000000       15.9300000000
 N  7.0        -0.3550000000       20.6370000000       14.3420000000
 H  1.0        -0.7315000000       20.3185800000       13.4625000000
 C  6.0         0.7980000000       19.9620000000       14.8900000000
 H  1.0         1.0723600000       20.3749000000       15.8596900000
 C  6.0         0.5620000000       18.4620000000       15.0860000000
 H  1.0         0.4027300000       18.0177800000       14.1021600000
 H  1.0         1.5101500000       18.0563400000       15.4437700000
 C  6.0        -0.5630000000       17.9490000000       15.9960000000
 H  1.0        -1.3078400000       17.4580100000       15.3686800000
 C  6.0        -0.0050000000       16.8940000000       16.9540000000
 H  1.0        -0.8154500000       16.4671100000       17.5440300000
 H  1.0         0.4724900000       16.0947700000       16.3870700000
 H  1.0         0.7241900000       17.3512800000       17.6240400000
 C  6.0        -1.2830000000       19.0360000000       16.7760000000
 H  1.0        -1.9487500000       18.5712000000       17.5001600000
 H  1.0        -0.5393000000       19.6368900000       17.2930700000
 H  1.0        -1.8936700000       19.6453500000       16.1158700000
 C  6.0         1.9490000000       20.2040000000       13.9310000000
 O  8.0         1.7970000000       20.0860000000       12.7050000000
 N  7.0         3.0830000000       20.5910000000       14.5050000000
 H  1.0         3.1277800000       20.6464100000       15.5209800000
 C  6.0         4.2750000000       20.8910000000       13.7420000000
 H  1.0         4.2303900000       20.4148200000       12.7617800000
 C  6.0         4.4200000000       22.4050000000       13.5630000000
 H  1.0         4.5629500000       22.8806900000       14.5355100000
 H  1.0         5.3070300000       22.5793900000       12.9588100000
 C  6.0         3.2200000000       23.0410000000       12.8640000000
 H  1.0         3.0548300000       22.4586600000       11.9590100000
 H  1.0         2.3356300000       22.9721200000       13.4990700000
 C  6.0         3.4560000000       24.4940000000       12.5280000000
 H  1.0         3.5507400000       25.0812100000       13.4430300000
 H  1.0         4.3832700000       24.5835700000       11.9638800000
 C  6.0         2.3190000000       25.0640000000       11.6640000000
 H  1.0         1.4408600000       25.1881500000       12.3012100000
 H  1.0         2.6060400000       26.0482300000       11.2850800000
 N  7.0         1.9700000000       24.1490000000       10.5270000000
 H  1.0         1.0890100000       24.4171900000       10.1156700000
 H  1.0         2.6893100000       24.2238000000        9.8124500000
 H  1.0         1.8981100000       23.1947900000       10.8328000000
 C  6.0         5.4780000000       20.3330000000       14.4740000000
 O  8.0         5.4400000000       20.0820000000       15.6770000000
 N  7.0         6.5540000000       20.1380000000       13.7350000000
 H  1.0         6.5460600000       20.4351500000       12.7734900000
 C  6.0         7.8190000000       19.7740000000       14.3340000000
 H  1.0         7.6686700000       19.2884300000       15.2994400000
 C  6.0         8.5620000000       18.7990000000       13.4150000000
 H  1.0         8.6740800000       19.2558300000       12.4301400000
 H  1.0         9.5605800000       18.6168300000       13.8150000000
 C  6.0         7.8330000000       17.4720000000       13.2570000000
 H  1.0         6.8042900000       17.6378700000       12.9294700000
 H  1.0         8.3304300000       16.9066600000       12.4657600000
 C  6.0         7.8620000000       16.6420000000       14.5300000000
 O  8.0         6.7890000000       16.4770000000       15.1510000000
 O  8.0         8.9600000000       16.1790000000       14.9200000000
 C  6.0         8.6150000000       21.0530000000       14.5560000000
 O  8.0         8.5250000000       21.9720000000       13.7480000000
 N  7.0         9.3210000000       21.1320000000       15.6850000000
 H  1.0         9.2738500000       20.3794000000       16.3657400000
 C  6.0        10.0870000000       22.3310000000       16.0390000000
 H  1.0        10.3500700000       22.8508700000       15.1174900000
 C  6.0         9.2290000000       23.2740000000       16.8790000000
 H  1.0         9.7129700000       24.2481700000       16.9380900000
 H  1.0         8.2573600000       23.3973200000       16.4034400000
 H  1.0         9.0978100000       22.8621000000       17.8789400000
 C  6.0        11.3960000000       22.0400000000       16.7670000000
 O  8.0        11.5170000000       21.0390000000       17.4750000000
 N  7.0        12.3630000000       22.9370000000       16.5710000000
 H  1.0        12.1534700000       23.7514000000       16.0029900000
 C  6.0        13.6970000000       22.8450000000       17.1560000000
 H  1.0        14.0247500000       21.8072800000       17.2009300000
 C  6.0        14.7080000000       23.6940000000       16.3800000000
 H  1.0        14.2635400000       24.6793800000       16.2284500000
 H  1.0        15.5671800000       23.8478400000       17.0374900000
 C  6.0        15.1927200000       23.1927300000       15.0214300000
 H  1.0        14.3343100000       22.9694200000       14.3879600000
 C  6.0        16.0441849856       24.2582524935       14.3331409620
 H  1.0        16.3595612859       23.9041288322       13.3518281949
 H  1.0        15.4637153227       25.1717865188       14.2076496785
 H  1.0        16.9293978220       24.4810014077       14.9286638749
 C  6.0        16.0360000000       21.9380000000       15.1910000000
 H  1.0        16.3703600000       21.6114100000       14.2079700000
 H  1.0        16.9057200000       22.1011200000       15.8279300000
 H  1.0        15.4164100000       21.1647400000       15.6332100000
 C  6.0        13.6460000000       23.3990000000       18.5580000000
 O  8.0        13.2190000000       24.5350000000       18.7480000000
 N  7.0        14.0580000000       22.5970000000       19.5370000000
 H  1.0        14.3230700000       21.6427100000       19.3187100000
 C  6.0        14.3720000000       23.1360000000       20.8590000000
 H  1.0        13.6108100000       23.8567900000       21.1574400000
 C  6.0        14.4540000000       22.0360000000       21.9070000000
 H  1.0        15.3308300000       21.4289100000       21.6826100000
 H  1.0        14.6181200000       22.4903100000       22.8845200000
 C  6.0        13.2670000000       21.0730000000       21.9850000000
 H  1.0        13.0973300000       20.6278100000       21.0052900000
 C  6.0        13.5810000000       19.9390000000       22.9230000000
 H  1.0        12.7332700000       19.2601900000       22.9751500000
 H  1.0        14.4552100000       19.4021200000       22.5580500000
 H  1.0        13.7854600000       20.3318800000       23.9196300000
 C  6.0        11.9940000000       21.8220000000       22.3860000000
 H  1.0        11.1931300000       21.1168200000       22.5790200000
 H  1.0        12.1693700000       22.3847600000       23.2998300000
 H  1.0        11.6923700000       22.4982100000       21.5865900000
 C  6.0        15.7070000000       23.8560000000       20.7350000000
 O  8.0        16.7510000000       23.2000000000       20.6420000000
 N  7.0        15.6620000000       25.1940000000       20.7160000000
 H  1.0        14.7686400000       25.6694000000       20.8176700000
 C  6.0        16.8000000000       26.0071400000       20.3040300000
 H  1.0        17.6421200000       25.3629800000       20.0533300000
 C  6.0        16.4739500000       26.7805000000       19.0271400000
 H  1.0        16.2491000000       26.0761100000       18.2244100000
 H  1.0        15.5955800000       27.4004300000       19.2101600000
 C  6.0        17.6639945375       27.6531411107       18.6332879096
 O  8.0        18.8002785552       27.3213625913       19.0467406609
 O  8.0        17.4137553739       28.6767312929       17.9777625700
 C  6.0        17.2508000000       26.9351500000       21.4249800000
 O  8.0        16.6348700000       27.9613500000       21.7252200000
 N  7.0        18.3720000000       26.5770000000       22.0410000000
 H  1.0        18.8123100000       25.6922000000       21.7997900000
 C  6.0        18.9420000000       27.3670000000       23.1340000000
 H  1.0        18.1384500000       27.6668200000       23.8046300000
 C  6.0        19.9880000000       26.5560000000       23.9470000000
 H  1.0        20.3711000000       27.1700400000       24.7534800000
 C  6.0        19.3370000000       25.3350000000       24.5630000000
 H  1.0        20.1080600000       24.6715600000       24.9207000000
 H  1.0        18.6867000000       25.6352200000       25.3767200000
 H  1.0        18.7559500000       24.7878600000       23.8222600000
 O  8.0        21.0790000000       26.1680000000       23.0920000000
 H  1.0        21.7163800000       26.8910300000       23.0763700000
 C  6.0        19.5990000000       28.6440000000       22.6080000000
 O  8.0        19.8270000000       29.5820000000       23.3670000000
 N  7.0        19.8590700000       28.7389700000       21.2957100000
 H  1.0        19.5819400000       27.9669300000       20.6890100000
 C  6.0        20.3637000000       29.9345100000       20.6129500000
 H  1.0        21.1759600000       30.3644100000       21.1960500000
 H  1.0        20.7573972320       29.6287714119       19.6435084021
 C  6.0        19.3133600000       31.0251500000       20.3496000000
 O  8.0        19.6825643362       32.1655940430       20.0689720585
 N  7.0        18.0182300000       30.7217300000       20.4795500000
 H  1.0        17.7725600000       29.7648800000       20.6980500000
 C  6.0        16.9210649464       31.6537310382       20.2198661134
 H  1.0        17.2606612180       32.4136710551       19.5162814716
 C  6.0        15.7849425115       30.8762261678       19.5483611703
 H  1.0        14.8752319295       31.4738431085       19.5286095821
 H  1.0        16.0656960900       30.6346631433       18.5279932913
 H  1.0        15.6038200000       29.9423800000       20.0788500000
 C  6.0        16.4352100000       32.3752200000       21.4884600000
 O  8.0        15.9845100000       31.7374800000       22.4398400000
 N  7.0        16.4392596355       33.7118643069       21.4866170975
 H  1.0        16.8163690218       34.1915618807       20.6840380620
 C  6.0        15.8539800000       34.5148100000       22.5741400000
 H  1.0        16.2540700000       34.1742100000       23.5294800000
 C  6.0        16.2036670556       36.0062033392       22.3836747910
 H  1.0        16.1532840116       36.2631714322       21.3244706350
 H  1.0        15.4500600000       36.6022200000       22.9028600000
 C  6.0        17.5691900000       36.4225000000       22.9410900000
 O  8.0        18.4042000000       35.5439200000       23.2498400000
 O  8.0        17.7809300000       37.6440600000       23.1131900000
 C  6.0        14.3266500000       34.3465300000       22.6462200000
 O  8.0        13.7640600000       34.2217600000       23.7349000000
 N  7.0        13.6667891102       34.2897975083       21.4869854104
 H  1.0        14.2108015404       34.2707785243       20.6332986663
 C  6.0        12.2167400000       34.1733300000       21.3424000000
 H  1.0        11.7769300000       33.9106400000       22.3055800000
 C  6.0        11.6101459817       35.5101419562       20.8931876219
 H  1.0        12.1011057095       35.8399862121       19.9790185244
 H  1.0        10.5550300000       35.3616900000       20.6602700000
 C  6.0        11.7119800000       36.5924300000       21.9655000000
 O  8.0        11.0035300000       36.4671400000       22.9868600000
 O  8.0        12.4620035376       37.5681981544       21.7526693024
 C  6.0        11.8457700000       33.0668900000       20.3469100000
 O  8.0        12.6073305917       32.7232365621       19.4469360777
 N  7.0        10.6410100000       32.5272900000       20.4887300000
 H  1.0        10.0791600000       32.8416800000       21.2662300000
 C  6.0        10.0860000000       31.4820000000       19.6190000000
 H  1.0        10.8513300000       30.7278800000       19.4392100000
 C  6.0         8.9230000000       30.8250000000       20.4110000000
 H  1.0         8.2610500000       31.6066200000       20.7865500000
 C  6.0         8.0940000000       29.8600000000       19.5910000000
 H  1.0         7.2871000000       29.4769100000       20.2141500000
 H  1.0         7.6502800000       30.3593800000       18.7315800000
 H  1.0         8.6909600000       29.0174100000       19.2643100000
 O  8.0         9.4730000000       30.1080000000       21.5180000000
 H  1.0         9.7989700000       30.7603500000       22.1599300000
 C  6.0         9.6337300000       32.0435700000       18.2788700000
 O  8.0         8.8980000000       33.0310000000       18.2000000000
 N  7.0        10.0299900000       31.3689200000       17.2058000000
 H  1.0        10.5530300000       30.5086600000       17.3421500000
 C  6.0         9.7250000000       31.7940000000       15.8420000000
 H  1.0         9.0599400000       32.6374700000       15.8872100000
 C  6.0        10.9905800000       32.2431700000       15.0811800000
 H  1.0        11.5789800000       31.3714600000       14.7952600000
 C  6.0        10.5800000000       32.9960000000       13.8110000000
 H  1.0        11.4667000000       33.2732000000       13.2444900000
 H  1.0         9.9481900000       32.3736000000       13.1780900000
 H  1.0        10.0305500000       33.8978000000       14.0818000000
 C  6.0        11.9020067989       33.1681142104       15.8967263548
 H  1.0        12.7609058952       33.4564513474       15.2929617525
 H  1.0        11.3537200000       34.0538300000       16.2146500000
 H  1.0        12.2823153711       32.6457028759       16.7745441953
 C  6.0         9.0850000000       30.6350000000       15.1120000000
 O  8.0         9.6950000000       29.5710000000       14.9360000000
 N  7.0         7.8690000000       30.8670000000       14.6420000000
 H  1.0         7.4559000000       31.7861000000       14.7467400000
 C  6.0         7.1210000000       29.8220000000       13.9760000000
 H  1.0         7.6532500000       28.8713000000       14.0081100000
 C  6.0         5.7660000000       29.6360000000       14.6530000000
 H  1.0         5.1969500000       30.5564500000       14.5169100000
 H  1.0         5.2345300000       28.8463900000       14.1180300000
 C  6.0         5.7700000000       29.2970000000       16.1360000000
 H  1.0         6.2019000000       30.1210800000       16.7039500000
 C  6.0         4.3090000000       29.1350000000       16.5530000000
 H  1.0         4.2706000000       28.9034600000       17.6124200000
 H  1.0         3.7651500000       30.0629100000       16.3740300000
 H  1.0         3.8437900000       28.3251100000       15.9911700000
 C  6.0         6.5690000000       28.0310000000       16.4120000000
 H  1.0         6.4671100000       27.7591100000       17.4624200000
 H  1.0         6.2038500000       27.2148400000       15.7893900000
 H  1.0         7.6259800000       28.2037700000       16.2106400000
 C  6.0         6.9000000000       30.1680000000       12.5140000000
 O  8.0         6.7870000000       31.3310000000       12.1570000000
 N  7.0         6.8170000000       29.1420000000       11.6730000000
 H  1.0         6.8749100000       28.2024400000       12.0378700000
 C  6.0         6.5070000000       29.3260000000       10.2590000000
 H  1.0         7.3008100000       29.9186000000        9.8044400000
 C  6.0         6.4150000000       27.9790000000        9.5330000000
 H  1.0         6.3933200000       28.1539700000        8.4563000000
 H  1.0         7.3215200000       27.4156300000        9.7582000000
 C  6.0         5.1770000000       27.1590000000        9.9200000000
 H  1.0         5.0557200000       27.1512700000       11.0038500000
 H  1.0         4.2909200000       27.6360300000        9.4972500000
 C  6.0         5.2320000000       25.7200000000        9.4380000000
 O  8.0         6.2660000000       25.0700000000        9.6800000000
 O  8.0         4.2420000000       25.2460000000        8.8280000000
 C  6.0         5.1920000000       30.0730000000       10.0860000000
 O  8.0         4.3400000000       30.1000000000       10.9830000000
 N  7.0         5.0430000000       30.6680000000        8.9110000000
 H  1.0         5.8013600000       30.6307100000        8.2492400000
 C  6.0         3.8710000000       31.4650000000        8.5820000000
 H  1.0         3.9272300000       32.3847500000        9.1650600000
 C  6.0         3.8620000000       31.7910000000        7.0920000000
 H  1.0         4.8208900000       32.2404600000        6.8270600000
 H  1.0         3.7582600000       30.8719400000        6.5128000000
 C  6.0         2.7610000000       32.7430000000        6.7030000000
 H  1.0         2.8847500000       33.0121500000        5.6517900000
 H  1.0         1.7951100000       32.2421700000        6.8025100000
 C  6.0         2.7940000000       33.9910000000        7.5460000000
 O  8.0         3.8640000000       34.6370000000        7.6110000000
 O  8.0         1.7570000000       34.3050000000        8.1610000000
 C  6.0         2.5850000000       30.7220000000        8.9380000000
 O  8.0         2.3960000000       29.5730000000        8.5450000000
 N  7.0         1.7030000000       31.4080000000        9.6600000000
 H  1.0         1.9165800000       32.3546200000        9.9493200000
 C  6.0         0.4020000000       30.8770000000       10.0090000000
 H  1.0        -0.0414000000       30.4127200000        9.1274700000
 C  6.0         0.5280000000       29.8210000000       11.1130000000
 H  1.0        -0.4736500000       29.4311000000       11.2884400000
 H  1.0         1.1531800000       29.0017000000       10.7566400000
 C  6.0         1.1040000000       30.3390000000       12.4240000000
 H  1.0         2.0468800000       30.8536100000       12.2367100000
 H  1.0         0.4052500000       31.0508700000       12.8466100000
 S 16.0         1.4140000000       29.0240000000       13.6330000000
 C  6.0         0.0290000000       27.9260000000       13.3390000000
 H  1.0         0.0255300000       27.1482900000       14.1029000000
 H  1.0        -0.9055300000       28.4835000000       13.4040600000
 H  1.0         0.1197200000       27.4526900000       12.3617500000
 C  6.0        -0.4960000000       32.0290000000       10.4640000000
 O  8.0        -0.0240000000       33.0150000000       11.0490000000
 N  7.0        -1.7910000000       31.8840000000       10.2250000000
 H  1.0        -2.1215100000       31.0474900000        9.7710600000
 C  6.0        -2.7380000000       32.9510000000       10.5070000000
 H  1.0        -2.1782300000       33.8852900000       10.4936400000
 C  6.0        -3.8180000000       32.9830000000        9.4180000000
 H  1.0        -3.3295600000       32.9256800000        8.4460500000
 H  1.0        -4.4958700000       32.1343100000        9.5078100000
 C  6.0        -4.6090000000       34.2720000000        9.4250000000
 O  8.0        -5.8040000000       34.2860000000        9.1110000000
 N  7.0        -3.9500000000       35.3640000000        9.7920000000
 H  1.0        -4.4564400000       36.2311200000        9.8191800000
 H  1.0        -2.9660600000       35.3447900000        9.9862100000
 C  6.0        -3.3870000000       32.8300000000       11.8820000000
 O  8.0        -4.5490000000       32.4250000000       11.9870000000
 N  7.0        -2.6550000000       33.2180000000       12.9240000000
 H  1.0        -1.7134100000       33.5519500000       12.7626000000
 C  6.0        -3.1460000000       33.1160000000       14.2980000000
 H  1.0        -3.6133100000       32.1411500000       14.4099400000
 C  6.0        -2.0010000000       33.2490000000       15.3030000000
 H  1.0        -1.4972700000       34.1873200000       15.0855900000
 H  1.0        -2.4308800000       33.3456000000       16.3020800000
 C  6.0        -0.9320000000       32.1650000000       15.3590000000
 H  1.0        -0.5010700000       32.0551400000       14.3709300000
 C  6.0         0.1470000000       32.6030000000       16.3120000000
 H  1.0         0.9444700000       31.8598500000       16.3261000000
 H  1.0         0.5712900000       33.5519300000       15.9847900000
 H  1.0        -0.2536900000       32.7218800000       17.3185500000
 C  6.0        -1.5340000000       30.8600000000       15.7980000000
 H  1.0        -0.7633400000       30.0928500000       15.7639900000
 H  1.0        -1.9267500000       30.9410800000       16.8114700000
 H  1.0        -2.3239900000       30.5526300000       15.1166900000
 C  6.0        -4.1630000000       34.2100000000       14.5930000000
 O  8.0        -4.0200000000       35.3350000000       14.1180000000
 N  7.0        -5.2070000000       33.8790000000       15.3660000000
 C  6.0        -5.6100000000       32.5420000000       15.8330000000
 H  1.0        -4.7691000000       31.9766200000       16.2370000000
 H  1.0        -6.0935100000       31.9973100000       15.0206400000
 C  6.0        -6.5910000000       32.8400000000       16.9170000000
 H  1.0        -6.0518600000       32.9538200000       17.8593200000
 H  1.0        -7.3331000000       32.0463600000       17.0108700000
 C  6.0        -7.2150000000       34.1260000000       16.5630000000
 H  1.0        -7.5693600000       34.6556300000       17.4489900000
 H  1.0        -8.0536400000       33.9393400000       15.8901900000
 C  6.0        -6.1380000000       34.9100000000       15.8020000000
 H  1.0        -6.5808300000       35.4126100000       14.9410800000
 C  6.0        -5.4880000000       35.9370000000       16.7190000000
 O  8.0        -4.5130000000       35.6340000000       17.4140000000
 N  7.0        -6.0090000000       37.1560000000       16.6840000000
 H  1.0        -6.7422200000       37.3557000000       16.0216300000
 C  6.0        -5.7360000000       38.1300000000       17.7320000000
 H  1.0        -6.6669800000       38.6309500000       17.9960000000
 H  1.0        -5.3670300000       37.6299800000       18.6285500000
 C  6.0        -4.7350000000       39.1870000000       17.3320000000
 O  8.0        -4.2410000000       39.1990000000       16.2020000000
 N  7.0        -4.4250000000       40.0650000000       18.2800000000
 H  1.0        -4.8341500000       39.9536500000       19.1955100000
 C  6.0        -3.5600000000       41.2140000000       18.0280000000
 H  1.0        -3.8592500000       41.6758800000       17.0854000000
 C  6.0        -3.6940000000       42.2440000000       19.1510000000
 H  1.0        -4.7331200000       42.5715800000       19.2167500000
 H  1.0        -3.4001500000       41.7926600000       20.1010200000
 C  6.0        -2.7996800000       43.4422700000       18.8510600000
 H  1.0        -1.7484300000       43.1661900000       18.8613300000
 H  1.0        -3.0708100000       43.8914100000       17.8938600000
 C  6.0        -2.9332700000       44.4691100000       19.9706100000
 H  1.0        -3.9715700000       44.7982600000       20.0399500000
 H  1.0        -2.6339600000       44.0175400000       20.9182900000
 C  6.0        -2.0389500000       45.6673800000       19.6706700000
 H  1.0        -1.0021500000       45.3340100000       19.5899100000
 H  1.0        -2.3367900000       46.1112700000       18.7184700000
 N  7.0        -2.1677200000       46.6571800000       20.7498500000
 H  1.0        -1.8913200000       46.2646500000       21.6321200000
 H  1.0        -1.5864600000       47.4569900000       20.5711800000
 H  1.0        -3.1163300000       46.9770100000       20.8320100000
 C  6.0        -2.1080000000       40.7880000000       17.8950000000
 O  8.0        -1.6770000000       39.7950000000       18.4810000000
 N  7.0        -1.3590000000       41.5430000000       17.1030000000
 H  1.0        -1.7603300000       42.3424600000       16.6370000000
 C  6.0         0.0600000000       41.2780000000       16.8980000000
 H  1.0         0.4782000000       40.8723300000       17.8147800000
 C  6.0         0.2570000000       40.2870000000       15.7500000000
 H  1.0         1.3223100000       40.1296900000       15.5791500000
 H  1.0        -0.1641500000       39.3273200000       16.0471300000
 C  6.0        -0.3940000000       40.7190000000       14.4690000000
 C  6.0        -1.6630000000       40.4420000000       14.0600000000
 H  1.0        -2.3727900000       39.8441800000       14.6222800000
 N  7.0        -1.9030000000       41.0130000000       12.8360000000
 H  1.0        -2.7734300000       40.9305600000       12.3257500000
 C  6.0        -0.7820000000       41.6850000000       12.4310000000
 C  6.0        -0.5390000000       42.4100000000       11.2680000000
 H  1.0        -1.2995100000       42.5155300000       10.5081000000
 C  6.0         0.6990000000       42.9820000000       11.1280000000
 H  1.0         0.9214400000       43.5516400000       10.2351400000
 C  6.0         1.6800000000       42.8450000000       12.1130000000
 H  1.0         2.6470000000       43.3034400000       11.9617400000
 C  6.0         1.4420000000       42.1210000000       13.2690000000
 H  1.0         2.2113900000       41.9854700000       14.0093400000
 C  6.0         0.1930000000       41.5200000000       13.4370000000
 C  6.0         0.7500000000       42.5990000000       16.5870000000
 O  8.0         0.0740000000       43.6010000000       16.3030000000
 N  7.0         2.0780000000       42.6050000000       16.6800000000
 H  1.0         2.5384700000       41.7505800000       16.9805600000
 C  6.0         2.9000000000       43.7830000000       16.3720000000
 H  1.0         2.2856600000       44.5206000000       15.8570400000
 C  6.0         3.4770000000       44.4150000000       17.6490000000
 H  1.0         2.6577200000       44.7492800000       18.2880400000
 H  1.0         4.0689300000       43.6724300000       18.1887700000
 C  6.0         4.3591500000       45.6014400000       17.2751100000
 H  1.0         5.1984300000       45.3250000000       16.6507700000
 H  1.0         3.7275500000       46.3721400000       16.8431000000
 C  6.0         4.9315600000       46.2284100000       18.5419500000
 H  1.0         4.1166200000       46.5641700000       19.1858500000
 H  1.0         5.5292300000       45.4858500000       19.0742900000
 C  6.0         5.8137000000       47.4148600000       18.1680700000
 H  1.0         6.6233400000       47.0711800000       17.5197100000
 H  1.0         5.2189400000       48.1505600000       17.6229100000
 N  7.0         6.3654700000       48.0192200000       19.3892200000
 H  1.0         6.9205500000       47.3547100000       19.8985300000
 H  1.0         6.9513900000       48.8039900000       19.1646200000
 H  1.0         5.6311900000       48.3441300000       19.9926900000
 C  6.0         4.0540000000       43.3620000000       15.4820000000
 O  8.0         4.5960000000       42.2660000000       15.6660000000
 N  7.0         4.4360000000       44.2180000000       14.5180000000
 C  6.0         3.8440000000       45.5190000000       14.1670000000
 H  1.0         3.8737900000       46.2747900000       14.9309100000
 H  1.0         2.8206700000       45.3715700000       13.8181700000
 C  6.0         4.6970000000       46.0140000000       13.0260000000
 H  1.0         5.4243300000       46.7274100000       13.4173800000
 H  1.0         4.0898000000       46.4982900000       12.2603100000
 C  6.0         5.4270000000       44.8420000000       12.4750000000
 H  1.0         6.3954400000       45.1273100000       12.0604600000
 H  1.0         4.8198700000       44.3774500000       11.6969100000
 C  6.0         5.5570000000       43.8690000000       13.6480000000
 H  1.0         5.4549900000       42.8460600000       13.2842300000
 C  6.0         6.9080000000       44.0420000000       14.3260000000
 O  8.0         7.1010000000       44.9530000000       15.1370000000
 N  7.0         7.8440000000       43.1810000000       13.9460000000
 H  1.0         7.5977200000       42.4422500000       13.2893300000
 C  6.0         9.1590000000       43.1440000000       14.5490000000
 H  1.0         9.4682200000       44.1421100000       14.8623000000
 C  6.0         9.0920000000       42.2100000000       15.7530000000
 H  1.0         8.2817000000       42.5541800000       16.3998200000
 H  1.0         8.8206600000       41.2177800000       15.4044700000
 C  6.0        10.3310000000       42.1100000000       16.5980000000
 H  1.0        11.1707500000       41.7519900000       16.0052500000
 H  1.0        10.5670900000       43.0886900000       17.0179600000
 C  6.0        10.0720000000       41.1000000000       17.7180000000
 H  1.0         9.1787000000       41.3697300000       18.2835200000
 H  1.0         9.9024700000       40.1212000000       17.2663200000
 C  6.0        11.2603400000       40.9729800000       18.6639300000
 H  1.0        11.1952700000       40.0129500000       19.1815500000
 H  1.0        12.1895600000       40.9907200000       18.0896300000
 N  7.0        11.2370000000       42.0600000000       19.6570000000
 H  1.0        11.9983000000       41.9616600000       20.3057700000
 H  1.0        11.3128700000       42.9614600000       19.2207700000
 H  1.0        10.3772900000       42.0290100000       20.1796500000
 C  6.0        10.1440000000       42.6110000000       13.5110000000
 O  8.0         9.7480000000       41.9190000000       12.5810000000
 N  7.0        11.4170000000       42.9520000000       13.6970000000
 H  1.0        11.6553200000       43.4851200000       14.5182700000
 C  6.0        12.5090000000       42.4250000000       12.8990000000
 H  1.0        12.1370100000       41.7803900000       12.1045700000
 C  6.0        13.3140000000       43.5710000000       12.2820000000
 H  1.0        13.6098200000       44.2583500000       13.0763900000
 H  1.0        14.2204000000       43.1756000000       11.8326200000
 C  6.0        12.5540000000       44.3530000000       11.2330000000
 H  1.0        11.5345500000       44.5340300000       11.5739600000
 H  1.0        13.0390500000       45.3185900000       11.0870800000
 S 16.0        12.5080000000       43.4910000000        9.6540000000
 C  6.0        14.1240000000       43.8900000000        9.0070000000
 H  1.0        14.3037800000       43.3159500000        8.0977400000
 H  1.0        14.1694300000       44.9538000000        8.7733400000
 H  1.0        14.8941500000       43.6572600000        9.7396900000
 C  6.0        13.4060000000       41.6250000000       13.8210000000
 O  8.0        13.7110000000       42.0660000000       14.9320000000
 N  7.0        13.7990000000       40.4350000000       13.3780000000
 H  1.0        13.4868600000       40.1024900000       12.4684000000
 C  6.0        14.7346800000       39.5753400000       14.1144900000
 H  1.0        15.1898000000       40.1604700000       14.9140800000
 C  6.0        14.0357300000       38.3733800000       14.7875600000
 H  1.0        14.8069658129       37.7887501127       15.2838458917
 C  6.0        13.0786873026       38.8836813197       15.8806738904
 H  1.0        12.7625706620       38.0528342594       16.5080070097
 H  1.0        13.5888554555       39.6085397971       16.5148658167
 H  1.0        12.2024300000       39.3484100000       15.4281700000
 C  6.0        13.3178600000       37.4512600000       13.7777000000
 H  1.0        12.5158600000       37.9979500000       13.2815000000
 H  1.0        14.0298900000       37.1247900000       13.0211400000
 C  6.0        12.7371000000       36.1886300000       14.4171900000
 H  1.0        12.3914900000       35.5179500000       13.6316700000
 H  1.0        13.5082388733       35.6856933886       15.0015727608
 H  1.0        11.8933400000       36.4390300000       15.0587900000
 C  6.0        15.8752500000       39.1556500000       13.1943900000
 O  8.0        15.6463000000       38.8334000000       12.0285600000
 N  7.0        17.1022000000       39.2236400000       13.7095800000
 H  1.0        17.2053500000       39.4749800000       14.6800600000
 C  6.0        18.3199000000       38.9577800000       12.9495100000
 H  1.0        18.0860600000       38.9207700000       11.8905500000
 H  1.0        19.0389100000       39.7612300000       13.0812400000
 C  6.0        18.9942800000       37.6516900000       13.3408700000
 O  8.0        19.1135097327       37.3285277001       14.5191940649
 N  7.0        19.5721700000       37.0006300000       12.3412000000
 H  1.0        19.4702200000       37.3847600000       11.4062300000
 C  6.0        20.3710219992       35.7908355754       12.4762052723
 H  1.0        20.8084962531       35.7295345520       13.4702967739
 H  1.0        19.7316033830       34.9199433827       12.3516282612
 C  6.0        21.4802900000       35.7492700000       11.4273200000
 O  8.0        21.9455000000       36.7820800000       10.9345200000
 N  7.0        21.9030200000       34.5433100000       11.0704300000
 H  1.0        21.4012609447       33.7390974121       11.4355402126
 C  6.0        22.7750900000       34.3060000000        9.9265000000
 H  1.0        23.6343300000       34.9720900000       10.0056900000
 C  6.0        23.3011500000       32.8509800000        9.9699900000
 H  1.0        22.4739287677       32.1659227950       10.1520776418
 C  6.0        23.9602900000       32.4667400000        8.6426700000
 H  1.0        24.3311300000       31.4440200000        8.6826400000
 H  1.0        23.2431100000       32.5156800000        7.8221800000
 H  1.0        24.7841200000       33.1404200000        8.4605300000
 C  6.0        24.3267800000       32.7344100000       11.1253600000
 H  1.0        25.1824600000       33.3742500000       10.9099600000
 H  1.0        23.8666906446       33.0904556227       12.0467581736
 C  6.0        24.8458600000       31.3205500000       11.4090300000
 H  1.0        25.4989800000       31.3492200000       12.2815800000
 H  1.0        24.0066404152       30.6626071431       11.6161458119
 H  1.0        25.4175400000       30.9387900000       10.5643100000
 C  6.0        22.0085400000       34.6888800000        8.6488000000
 O  8.0        20.8660800000       34.2838500000        8.4310600000
 N  7.0        22.6330000000       35.5350000000        7.8240000000
 H  1.0        23.5673000000       35.8171400000        8.0761600000
 C  6.0        22.0770000000       36.0010000000        6.5570000000
 H  1.0        22.8753700000       36.1135600000        5.8268400000
 H  1.0        21.3687300000       35.2694400000        6.1770800000
 C  6.0        21.3690000000       37.3370000000        6.6780000000
 O  8.0        21.0860000000       37.9750000000        5.6720000000
 N  7.0        21.0920000000       37.7690000000        7.9050000000
 H  1.0        21.3234100000       37.1982200000        8.7119300000
 C  6.0        20.4060000000       39.0370000000        8.1230000000
 H  1.0        21.0413600000       39.6735300000        8.7378800000
 H  1.0        20.2359400000       39.5631400000        7.1837100000
 C  6.0        19.0770000000       38.8880000000        8.8440000000
 O  8.0        18.9180000000       38.0600000000        9.7480000000
 N  7.0        18.1150000000       39.7060000000        8.4430000000
 H  1.0        18.2658900000       40.2971900000        7.6410700000
 C  6.0        16.9240000000       39.9230000000        9.2400000000
 H  1.0        16.9878000000       39.3711000000       10.1685600000
 C  6.0        16.7610000000       41.4150000000        9.5590000000
 H  1.0        16.9791800000       42.0126600000        8.6724100000
 H  1.0        15.7165800000       41.5875500000        9.8192000000
 C  6.0        17.6070000000       41.8930000000       10.7190000000
 C  6.0        18.9650000000       42.0930000000       10.5710000000
 H  1.0        19.4304800000       41.9199300000        9.6119800000
 C  6.0        19.7450000000       42.5110000000       11.6350000000
 H  1.0        20.8075700000       42.6595100000       11.4992800000
 C  6.0        19.1710000000       42.7510000000       12.8630000000
 H  1.0        19.7799500000       43.0798000000       13.6942500000
 C  6.0        17.8290000000       42.5480000000       13.0300000000
 H  1.0        17.3735400000       42.7156300000       13.9965700000
 C  6.0        17.0430000000       42.1360000000       11.9530000000
 H  1.0        15.9917300000       41.9566200000       12.1047700000
 C  6.0        15.6950000000       39.4340000000        8.4980000000
 O  8.0        15.6290000000       39.5440000000        7.2730000000
 N  7.0        14.7110000000       38.9450000000        9.2500000000
 H  1.0        14.8534200000       38.8777700000       10.2550400000
 C  6.0        13.3530000000       38.7910000000        8.7350000000
 H  1.0        13.3055400000       39.2050500000        7.7273600000
 C  6.0        12.9160000000       37.3200000000        8.6370000000
 H  1.0        11.8730400000       37.3020000000        8.3151400000
 C  6.0        13.7460000000       36.6060000000        7.5620000000
 H  1.0        13.3983900000       35.5788500000        7.4423600000
 H  1.0        13.6498000000       37.1227100000        6.6072700000
 H  1.0        14.7974700000       36.5830300000        7.8483200000
 C  6.0        13.0250000000       36.6160000000        9.9880000000
 H  1.0        14.0373800000       36.2338200000       10.1292900000
 H  1.0        12.8250000000       37.3092400000       10.8013700000
 C  6.0        12.0150000000       35.4600000000       10.1480000000
 H  1.0        12.1395800000       35.0018600000       11.1290500000
 H  1.0        10.9994200000       35.8401200000       10.0626500000
 H  1.0        12.1848600000       34.7040000000        9.3808300000
 C  6.0        12.3340000000       39.5660000000        9.5610000000
 O  8.0        12.5420000000       39.8270000000       10.7520000000
 N  7.0        11.2600000000       39.9530000000        8.8900000000
 H  1.0        11.1796400000       39.6872100000        7.9204100000
 C  6.0        10.1310000000       40.6220000000        9.5120000000
 H  1.0        10.4774100000       41.2324900000       10.3463200000
 C  6.0         9.4050000000       41.5140000000        8.4970000000
 H  1.0        10.1525900000       42.1634600000        8.0380100000
 H  1.0         8.9809200000       40.8915400000        7.7065700000
 C  6.0         8.2990000000       42.4150000000        9.0710000000
 H  1.0         7.4662200000       41.7863300000        9.3902500000
 H  1.0         8.6800000000       42.9566300000        9.9382600000
 C  6.0         7.8030000000       43.4290000000        8.0240000000
 H  1.0         8.5647600000       44.1956700000        7.8746000000
 H  1.0         7.6435200000       42.9075500000        7.0789100000
 C  6.0         6.4930000000       44.0800000000        8.4320000000
 H  1.0         5.7728500000       43.2884600000        8.6494700000
 H  1.0         6.6595900000       44.6335800000        9.3582800000
 N  7.0         5.9000000000       45.0050000000        7.4030000000
 H  1.0         5.0367700000       45.3999400000        7.7321100000
 H  1.0         6.5284400000       45.7609400000        7.1965800000
 H  1.0         5.7098300000       44.5141700000        6.5474900000
 C  6.0         9.1890000000       39.5460000000       10.0190000000
 O  8.0         8.8680000000       38.5960000000        9.2950000000
 N  7.0         8.7830000000       39.6910000000       11.2780000000
 H  1.0         9.0822300000       40.5051800000       11.7993900000
 C  6.0         7.8770000000       38.7600000000       11.9090000000
 H  1.0         7.4680600000       38.0678700000       11.1723700000
 C  6.0         8.5870000000       37.9250000000       12.9950000000
 H  1.0         7.8613800000       37.2432900000       13.4379900000
 C  6.0         9.6760000000       37.0590000000       12.3740000000
 H  1.0        10.0941900000       36.4000100000       13.1351000000
 H  1.0         9.2505900000       36.4455000000       11.5837500000
 H  1.0        10.4746800000       37.6791000000       11.9672600000
 C  6.0         9.1360000000       38.8070000000       14.1110000000
 H  1.0         9.7515100000       38.2074100000       14.7779500000
 H  1.0         9.7676200000       39.5956800000       13.7091400000
 H  1.0         8.3096200000       39.2258000000       14.6819700000
 C  6.0         6.6920000000       39.4980000000       12.5320000000
 O  8.0         6.6900000000       40.7260000000       12.6640000000
 N  7.0         5.6800000000       38.7260000000       12.9090000000
 H  1.0         5.7191400000       37.7294800000       12.7137100000
 C  6.0         4.5220000000       39.2590000000       13.6160000000
 H  1.0         4.5704200000       40.3451900000       13.6991400000
 C  6.0         3.2300000000       38.8680000000       12.8850000000
 H  1.0         3.1631100000       37.7796500000       12.8431100000
 H  1.0         2.3851600000       39.2388800000       13.4671800000
 C  6.0         3.1350000000       39.4220000000       11.4660000000
 H  1.0         3.4464700000       40.4670800000       11.4665900000
 H  1.0         3.8184500000       38.8673500000       10.8227400000
 C  6.0         1.7250000000       39.3500000000       10.8990000000
 H  1.0         1.1148700000       40.0969700000       11.3981600000
 H  1.0         1.7464100000       39.6027400000        9.8377800000
 N  7.0         1.0920000000       38.0430000000       11.0990000000
 H  1.0         0.3930100000       37.9423800000       11.8223700000
 C  6.0         1.4030000000       36.9390000000       10.4210000000
 N  7.0         2.3370000000       36.9650000000        9.4760000000
 H  1.0         2.8405700000       37.8028800000        9.2884200000
 H  1.0         2.5042400000       36.1107100000        8.9495500000
 N  7.0         0.7840000000       35.7970000000       10.6890000000
 H  1.0         0.1477300000       35.7347900000       11.4632800000
 H  1.0         0.9874600000       34.9869300000       10.1170300000
 C  6.0         4.5540000000       38.6630000000       15.0180000000
 O  8.0         4.6170000000       37.4470000000       15.1740000000
 N  7.0         4.5560000000       39.5230000000       16.0320000000
 H  1.0         4.5586600000       40.5137700000       15.8340600000
 C  6.0         4.6460000000       39.0900000000       17.4310000000
 H  1.0         5.1495600000       38.1246400000       17.4823200000
 C  6.0         5.4650000000       40.0910000000       18.2440000000
 H  1.0         6.4893600000       40.0953400000       17.8728100000
 H  1.0         5.0523900000       41.0893100000       18.0894300000
 C  6.0         5.4560000000       39.8120000000       19.7360000000
 H  1.0         4.4390300000       39.8065800000       20.1279400000
 H  1.0         5.8946400000       38.8349600000       19.8847100000
 C  6.0         6.2540000000       40.8140000000       20.5360000000
 O  8.0         7.2130000000       41.4010000000       20.0410000000
 N  7.0         5.8760000000       40.9950000000       21.7940000000
 H  1.0         5.0908200000       40.4681200000       22.1817100000
 H  1.0         6.3944000000       41.6370300000       22.3629500000
 C  6.0         3.2680000000       38.9370000000       18.0660000000
 O  8.0         2.5160000000       39.9110000000       18.2050000000
 N  7.0         2.9340000000       37.7100000000       18.4450000000
 H  1.0         3.5829800000       36.9436600000       18.3033300000
 C  6.0         1.6860000000       37.4270000000       19.1570000000
 H  1.0         0.9950100000       38.2693700000       19.1015300000
 C  6.0         1.0110000000       36.2040000000       18.5520000000
 H  1.0         1.7076100000       35.3698600000       18.5612600000
 H  1.0         0.1656700000       35.9415200000       19.1825500000
 C  6.0         0.5150000000       36.3930000000       17.1440000000
 C  6.0         1.3850000000       36.3080000000       16.0690000000
 H  1.0         2.4360600000       36.1127100000       16.2444100000
 C  6.0         0.9340000000       36.4520000000       14.7790000000
 H  1.0         1.6162700000       36.3748300000       13.9487300000
 C  6.0        -0.4050000000       36.6720000000       14.5470000000
 O  8.0        -0.8500000000       36.8080000000       13.2590000000
 H  1.0        -1.8086600000       36.8971400000       13.2486500000
 C  6.0        -1.2960000000       36.7620000000       15.5930000000
 H  1.0        -2.3457900000       36.9399600000       15.4080200000
 C  6.0        -0.8370000000       36.6170000000       16.8830000000
 H  1.0        -1.5398200000       36.6850100000       17.7030200000
 C  6.0         2.0170000000       37.1360000000       20.6210000000
 O  8.0         2.9770000000       36.4140000000       20.9050000000
 N  7.0         1.2470000000       37.7110000000       21.5440000000
 H  1.0         0.4518500000       38.2584300000       21.2536200000
 C  6.0         1.4490000000       37.4630000000       22.9710000000
 H  1.0         2.4366500000       37.0283300000       23.1292900000
 C  6.0         1.4250000000       38.7820000000       23.7410000000
 H  1.0         0.4452400000       39.2485600000       23.6190200000
 H  1.0         1.5743900000       38.5783100000       24.8023800000
 C  6.0         2.5130000000       39.7450000000       23.2840000000
 O  8.0         3.6490000000       39.3010000000       23.0050000000
 O  8.0         2.2280000000       40.9540000000       23.2130000000
 C  6.0         0.4290000000       36.4790000000       23.5590000000
 O  8.0        -0.6760000000       36.3170000000       23.0380000000
 N  7.0         0.8250000000       35.8200000000       24.6440000000
 H  1.0         1.7623000000       35.9769500000       24.9817100000
 C  6.0        -0.0230000000       34.8750000000       25.3740000000
 H  1.0         0.6096500000       34.3496000000       26.0896100000
 C  6.0        -1.1130000000       35.6170000000       26.1600000000
 H  1.0        -1.8196000000       36.0529100000       25.4520500000
 H  1.0        -1.6659500000       34.9038200000       26.7737300000
 C  6.0        -0.6090000000       36.7520000000       27.0580000000
 H  1.0         0.0014400000       37.4495200000       26.4860000000
 H  1.0        -1.4754600000       37.3086700000       27.4148100000
 C  6.0         0.1680000000       36.2850000000       28.2880000000
 O  8.0         0.1980000000       35.1000000000       28.6360000000
 N  7.0         0.7780000000       37.2400000000       28.9760000000
 H  1.0         0.7273300000       38.1984100000       28.6776200000
 H  1.0         1.2907500000       36.9771800000       29.7996300000
 C  6.0        -0.6500000000       33.8030000000       24.4760000000
 O  8.0        -1.8490000000       33.5590000000       24.5240000000
 N  7.0         0.1770000000       33.1420000000       23.6770000000
 H  1.0         1.1649800000       33.3805600000       23.6606000000
 C  6.0        -0.2850000000       32.0500000000       22.8310000000
 H  1.0        -1.3574100000       32.1183800000       22.6781600000
 C  6.0         0.3780000000       32.1340000000       21.4420000000
 H  1.0         1.4607100000       32.0777000000       21.5725500000
 C  6.0        -0.0400000000       30.9410000000       20.5660000000
 H  1.0         0.3530700000       31.0864100000       19.5610600000
 H  1.0         0.3758800000       30.0121700000       20.9590500000
 H  1.0        -1.1251900000       30.8559900000       20.5170500000
 C  6.0         0.0720000000       33.4980000000       20.7920000000
 H  1.0         0.4948100000       34.3073300000       21.3873800000
 H  1.0         0.5712800000       33.5211600000       19.8268500000
 C  6.0        -1.4130000000       33.7900000000       20.5180000000
 H  1.0        -1.5146100000       34.7481400000       20.0117400000
 H  1.0        -1.8414300000       33.0173100000       19.8802200000
 H  1.0        -1.9695500000       33.8450300000       21.4529600000
 C  6.0         0.0650000000       30.7290000000       23.5240000000
 O  8.0         1.2340000000       30.4980000000       23.8500000000
 N  7.0        -0.9470000000       29.8860000000       23.8220000000
 C  6.0        -2.3990000000       30.0710000000       23.6770000000
 H  1.0        -2.7083600000       29.7713600000       22.6746000000
 H  1.0        -2.7134900000       31.0914100000       23.8967000000
 C  6.0        -2.9600000000       29.1410000000       24.6930000000
 H  1.0        -3.9211900000       28.7450000000       24.3632100000
 H  1.0        -3.1054400000       29.6804300000       25.6268900000
 C  6.0        -1.9750000000       28.0440000000       24.8990000000
 H  1.0        -2.2820200000       27.1694900000       24.3214200000
 H  1.0        -1.9151800000       27.7727600000       25.9538500000
 C  6.0        -0.6230000000       28.5810000000       24.4020000000
 H  1.0         0.0598300000       28.6966100000       25.2412100000
 C  6.0        -0.0520000000       27.6480000000       23.3600000000
 O  8.0        -0.5990000000       27.5340000000       22.2640000000
 N  7.0         1.0550000000       27.0050000000       23.7090000000
 H  1.0         1.4006800000       27.1091900000       24.6586800000
 C  6.0         1.7060000000       26.0170000000       22.8620000000
 H  1.0         1.0286400000       25.7114200000       22.0654900000
 C  6.0         3.0030000000       26.5940000000       22.2290000000
 H  1.0         3.6517200000       26.9653200000       23.0247800000
 C  6.0         3.7710000000       25.5210000000       21.4590000000
 H  1.0         4.7681700000       25.8713300000       21.1907900000
 H  1.0         3.9148200000       24.6331000000       22.0624800000
 H  1.0         3.2179500000       25.2280400000       20.5652000000
 C  6.0         2.6580000000       27.7500000000       21.2870000000
 H  1.0         1.7604800000       27.4962300000       20.7237700000
 H  1.0         2.4391800000       28.6383400000       21.8810900000
 C  6.0         3.7460000000       28.0930000000       20.2860000000
 H  1.0         3.3959200000       28.9031000000       19.6644900000
 H  1.0         4.6605200000       28.3885600000       20.8013800000
 H  1.0         3.9457900000       27.2680200000       19.6030700000
 C  6.0         1.9970000000       24.7840000000       23.7360000000
 O  8.0         2.3990000000       24.9030000000       24.8910000000
 N  7.0         1.7090000000       23.6030000000       23.2070000000
 H  1.0         1.2582300000       23.5675700000       22.2932800000
 C  6.0         2.0540000000       22.3620000000       23.8850000000
 H  1.0         2.2561100000       22.5413000000       24.9395900000
 C  6.0         0.8860000000       21.3660000000       23.7890000000
 H  1.0         0.6916500000       21.1347000000       22.7514600000
 H  1.0         1.1992600000       20.4377900000       24.2693700000
 C  6.0        -0.4180000000       21.8350000000       24.4810000000
 H  1.0        -1.1553900000       21.0331900000       24.3973100000
 H  1.0        -0.2080200000       21.9737400000       25.5444500000
 C  6.0        -1.0290000000       23.1320000000       23.9030000000
 O  8.0        -1.1830000000       23.2380000000       22.6640000000
 O  8.0        -1.4020000000       24.0330000000       24.6950000000
 C  6.0         3.3260000000       21.8180000000       23.2210000000
 O  8.0         3.3910000000       21.7090000000       21.9970000000
 N  7.0         4.3480000000       21.5320000000       24.0230000000
 H  1.0         4.2497500000       21.6653100000       25.0254800000
 C  6.0         5.6260000000       21.0490000000       23.5010000000
 H  1.0         5.5798100000       20.9093600000       22.4207900000
 C  6.0         6.7530000000       22.0550000000       23.8030000000
 H  1.0         6.8261200000       22.1698000000       24.8839400000
 C  6.0         8.0940000000       21.5500000000       23.2700000000
 H  1.0         8.8654900000       22.3103500000       23.3841800000
 H  1.0         8.4190700000       20.6709600000       23.8276900000
 H  1.0         8.0197200000       21.2899800000       22.2164300000
 C  6.0         6.4400000000       23.4180000000       23.1930000000
 H  1.0         6.7095800000       23.4265900000       22.1382100000
 H  1.0         5.3825400000       23.6407100000       23.2675800000
 C  6.0         7.1330000000       24.5570000000       23.8970000000
 H  1.0         6.9676800000       25.4822200000       23.3441900000
 H  1.0         6.7222300000       24.6703800000       24.9007300000
 H  1.0         8.2007100000       24.3728500000       23.9789300000
 C  6.0         5.9760000000       19.6980000000       24.1400000000
 O  8.0         6.3040000000       19.6390000000       25.3130000000
 N  7.0         5.8710000000       18.6090000000       23.3900000000
 H  1.0         5.6909600000       18.7028000000       22.3957300000
 C  6.0         6.0790000000       17.2660000000       23.9640000000
 H  1.0         5.8937400000       16.5157100000       23.1961600000
 C  6.0         7.5050000000       17.1100000000       24.4880000000
 H  1.0         7.7236000000       17.8325800000       25.2741700000
 H  1.0         7.5991500000       16.1244800000       24.9463300000
 S 16.0         8.7670000000       17.1890000000       23.2580000000
 H  1.0         9.8035500000       17.0204900000       24.0838300000
 C  6.0         5.1540000000       16.9810000000       25.1420000000
 O  8.0         5.5830000000       16.4050000000       26.1440000000
 N  7.0         3.9110000000       17.4340000000       25.0630000000
 H  1.0         3.6268900000       17.9479800000       24.2427600000
 C  6.0         2.9660000000       17.2350000000       26.1610000000
 H  1.0         1.9544800000       17.3392200000       25.7700900000
 H  1.0         3.0731300000       16.2236800000       26.5541200000
 C  6.0         3.1140000000       18.2040000000       27.3200000000
 O  8.0         2.2770000000       18.2260000000       28.2170000000
 N  7.0         4.1550000000       19.0280000000       27.3050000000
 H  1.0         4.8670500000       18.9445500000       26.5862700000
 C  6.0         4.3230000000       20.0650000000       28.3200000000
 H  1.0         3.8971700000       19.7234800000       29.2639300000
 C  6.0         5.8070000000       20.3320000000       28.5530000000
 H  1.0         6.2846000000       20.6281100000       27.6202800000
 H  1.0         5.9054300000       21.1649100000       29.2497900000
 C  6.0         6.5390000000       19.1630000000       29.1360000000
 N  7.0         7.0840000000       18.1650000000       28.3590000000
 C  6.0         7.6440000000       17.2570000000       29.1390000000
 H  1.0         8.1650500000       16.3699500000       28.8031600000
 N  7.0         7.4540000000       17.6150000000       30.3970000000
 H  1.0         7.8156500000       17.1162400000       31.2004200000
 C  6.0         6.7640000000       18.8030000000       30.4200000000
 H  1.0         6.4639900000       19.3588400000       31.2965000000
 C  6.0         3.6220000000       21.3570000000       27.9160000000
 O  8.0         3.6880000000       21.7820000000       26.7600000000
 N  7.0         2.9850000000       22.0080000000       28.8810000000
 H  1.0         3.0037800000       21.6425100000       29.8206500000
 C  6.0         2.2310000000       23.2280000000       28.6060000000
 H  1.0         1.8183400000       23.1781500000       27.5951700000
 C  6.0         1.0760000000       23.3930000000       29.5780000000
 H  1.0         1.4626600000       23.3629100000       30.5987500000
 H  1.0         0.6217200000       24.3730000000       29.4179600000
 C  6.0        -0.0050000000       22.3430000000       29.4180000000
 H  1.0        -0.4219200000       22.4016100000       28.4110900000
 H  1.0         0.4343400000       21.3537700000       29.5559400000
 C  6.0        -1.1260000000       22.5250000000       30.4420000000
 H  1.0        -0.7098500000       22.5802800000       31.4490600000
 H  1.0        -1.6486500000       23.4572300000       30.2210900000
 C  6.0        -2.1030000000       21.3560000000       30.3700000000
 H  1.0        -2.2807300000       21.1167600000       29.3195000000
 H  1.0        -1.6511000000       20.4818500000       30.8430800000
 N  7.0        -3.4040000000       21.6750000000       31.0140000000
 H  1.0        -4.0339000000       20.8948300000       30.9511400000
 H  1.0        -3.2782600000       21.8932500000       31.9863100000
 H  1.0        -3.8410200000       22.4625000000       30.5694600000
 C  6.0         3.1210000000       24.4650000000       28.6720000000
 O  8.0         3.9190000000       24.6400000000       29.5910000000
 N  7.0         2.9670000000       25.3250000000       27.6810000000
 H  1.0         2.3746300000       25.1052700000       26.8873900000
 C  6.0         3.6380000000       26.6160000000       27.6840000000
 H  1.0         3.9449500000       26.8864500000       28.6960500000
 C  6.0         4.8520000000       26.5650000000       26.8140000000
 H  1.0         5.4413800000       27.4658600000       26.9566700000
 H  1.0         5.4724500000       25.7134200000       27.0952600000
 H  1.0         4.5678800000       26.4673000000       25.7647100000
 C  6.0         2.6650000000       27.6680000000       27.1920000000
 O  8.0         1.6340000000       27.3460000000       26.5960000000
 N  7.0         2.9640000000       28.9220000000       27.5030000000
 H  1.0         3.7987400000       29.1199600000       28.0510500000
 C  6.0         2.1690000000       30.0350000000       27.0140000000
 H  1.0         1.9086300000       29.8269000000       25.9812800000
 C  6.0         0.8750000000       30.2460000000       27.8120000000
 H  1.0         0.2640900000       29.3505100000       27.6889100000
 C  6.0         1.1740000000       30.4220000000       29.2980000000
 H  1.0         0.2380800000       30.3894000000       29.8547900000
 H  1.0         1.8094200000       29.6206700000       29.6741400000
 H  1.0         1.6457000000       31.3823000000       29.5027100000
 C  6.0         0.0980000000       31.4550000000       27.2660000000
 H  1.0         0.4988300000       32.3846300000       27.6728300000
 H  1.0         0.2178200000       31.4881200000       26.1852100000
 C  6.0        -1.3770000000       31.3860000000       27.5330000000
 H  1.0        -1.8842700000       32.1896300000       26.9990900000
 H  1.0        -1.7690200000       30.4273000000       27.2021400000
 H  1.0        -1.5655100000       31.4974700000       28.6008800000
 C  6.0         3.0350000000       31.2730000000       27.0580000000
 O  8.0         3.6300000000       31.5950000000       28.0910000000
 N  7.0         3.1550000000       31.9250000000       25.9090000000
 H  1.0         2.6872700000       31.5831500000       25.0745000000
 C  6.0         3.9620000000       33.1200000000       25.8280000000
 H  1.0         3.5637300000       33.8787600000       26.5016000000
 H  1.0         4.9760200000       32.8787800000       26.1504600000
 C  6.0         4.0300000000       33.7060000000       24.4360000000
 O  8.0         3.1370000000       33.5260000000       23.6050000000
 N  7.0         5.0690000000       34.4940000000       24.2130000000
 H  1.0         5.7613300000       34.6293900000       24.9312000000
 C  6.0         5.1680000000       35.2660000000       22.9940000000
 H  1.0         4.1849900000       35.6528200000       22.7485000000
 C  6.0         6.1110000000       36.4650000000       23.1740000000
 H  1.0         7.0533100000       36.1289100000       23.6088400000
 C  6.0         6.3940000000       37.1630000000       21.8460000000
 H  1.0         6.9049700000       38.1071300000       22.0343300000
 H  1.0         7.0317000000       36.5416300000       21.2167500000
 H  1.0         5.4450400000       37.3453600000       21.3447500000
 O  8.0         5.4920000000       37.4040000000       24.0550000000
 H  1.0         4.9079200000       37.9875000000       23.5339900000
 C  6.0         5.6260000000       34.3490000000       21.8700000000
 O  8.0         6.5300000000       33.5250000000       22.0460000000
 N  7.0         4.9440000000       34.4390000000       20.7300000000
 H  1.0         4.1803000000       35.1029300000       20.6468800000
 C  6.0         5.4110000000       33.7450000000       19.5330000000
 H  1.0         6.4171000000       33.3588000000       19.7017900000
 C  6.0         4.5280000000       32.5240000000       19.1860000000
 H  1.0         4.9988700000       31.9785700000       18.3671800000
 C  6.0         4.4280000000       31.5610000000       20.3940000000
 H  1.0         3.6572200000       30.8337200000       20.1972400000
 H  1.0         5.3863800000       31.0722100000       20.5659000000
 H  1.0         4.1235100000       32.0857900000       21.2978900000
 C  6.0         3.1680000000       32.9590000000       18.7150000000
 H  1.0         2.5286300000       32.0866100000       18.5853100000
 H  1.0         2.7302700000       33.6163800000       19.4609100000
 H  1.0         3.2280500000       33.4657600000       17.7529200000
 C  6.0         5.5020000000       34.7100000000       18.3490000000
 O  8.0         4.6200000000       35.5440000000       18.1390000000
 N  7.0         6.6210000000       34.6160000000       17.6350000000
 H  1.0         7.3151100000       33.9187700000       17.8881600000
 C  6.0         6.8960000000       35.4250000000       16.4710000000
 H  1.0         6.2471000000       36.2960800000       16.4625200000
 C  6.0         8.3580000000       35.9000000000       16.4750000000
 H  1.0         8.9983100000       35.0480900000       16.2426700000
 H  1.0         8.4781600000       36.6230200000       15.6763000000
 C  6.0         8.8740000000       36.5010000000       17.7900000000
 H  1.0         8.7884000000       35.7640800000       18.5876300000
 C  6.0        10.3294000000       36.9480600000       17.6717800000
 H  1.0        10.6627600000       37.3726100000       18.6182100000
 H  1.0        10.9555300000       36.0859100000       17.4428500000
 H  1.0        10.4316400000       37.6922900000       16.8868100000
 C  6.0         8.0260000000       37.7020000000       18.1740000000
 H  1.0         8.4518900000       38.1854100000       19.0531300000
 H  1.0         7.9919000000       38.4087000000       17.3468500000
 H  1.0         7.0231100000       37.3647300000       18.4248000000
 C  6.0         6.6360000000       34.5770000000       15.2410000000
 O  8.0         7.1990000000       33.4900000000       15.0820000000
 N  7.0         5.8110000000       35.0890000000       14.3460000000
 H  1.0         5.3525500000       35.9701600000       14.5444700000
 C  6.0         5.3990000000       34.3210000000       13.1740000000
 H  1.0         5.8013000000       33.3097100000       13.2046200000
 C  6.0         3.8540000000       34.2040000000       13.0940000000
 H  1.0         3.4294200000       35.2067900000       13.1397700000
 C  6.0         3.4160000000       33.5840000000       11.7690000000
 H  1.0         2.3420700000       33.4220000000       11.7955400000
 H  1.0         3.6395200000       34.2483800000       10.9341200000
 H  1.0         3.9169800000       32.6253600000       11.6303000000
 C  6.0         3.3260000000       33.4240000000       14.2750000000
 H  1.0         2.2420900000       33.3448700000       14.2014000000
 H  1.0         3.7545600000       32.4222100000       14.2797200000
 H  1.0         3.5729000000       33.9293000000       15.2084100000
 C  6.0         5.9400000000       35.0200000000       11.9420000000
 O  8.0         5.7750000000       36.2240000000       11.7750000000
 N  7.0         6.6090000000       34.2570000000       11.0860000000
 H  1.0         6.7279900000       33.2633400000       11.2768100000
 C  6.0         7.1500000000       34.8120000000        9.8630000000
 H  1.0         6.3370400000       35.2409900000        9.2747400000
 H  1.0         7.8467300000       35.6086200000       10.1156000000
 C  6.0         7.8520000000       33.7820000000        9.0150000000
 O  8.0         7.7990000000       32.5840000000        9.3140000000
 N  7.0         8.5370000000       34.2480000000        7.9570000000
 C  6.0         8.8400000000       35.6670000000        7.6930000000
 H  1.0         9.4865000000       36.0916700000        8.4597500000
 H  1.0         7.9145000000       36.2395000000        7.6131300000
 C  6.0         9.5380000000       35.6440000000        6.3620000000
 H  1.0        10.6134200000       35.7259700000        6.5285800000
 H  1.0         9.2045900000       36.4656700000        5.7271800000
 C  6.0         9.2440000000       34.3220000000        5.7370000000
 H  1.0        10.0193100000       34.0135000000        5.0347800000
 H  1.0         8.2921000000       34.3909000000        5.2076900000
 C  6.0         9.0730000000       33.3720000000        6.9210000000
 H  1.0         8.3441700000       32.6022200000        6.6640000000
 C  6.0        10.3860000000       32.6830000000        7.3250000000
 O  8.0        11.4520000000       32.9530000000        6.7590000000
 N  7.0        10.2700000000       31.7960000000        8.3100000000
 H  1.0         9.3585600000       31.6681000000        8.7391600000
 C  6.0        11.3640000000       30.9380000000        8.7440000000
 H  1.0        12.3023400000       31.4062400000        8.4549500000
 C  6.0        11.4000000000       30.7880000000       10.3000000000
 H  1.0        11.6950400000       31.7424000000       10.7377900000
 C  6.0        10.0300000000       30.4100000000       10.8670000000
 H  1.0        10.1286200000       30.1957700000       11.9319300000
 H  1.0         9.3319700000       31.2363800000       10.7656000000
 H  1.0         9.6369000000       29.5211100000       10.3756400000
 O  8.0        12.3591300000       29.8291800000       10.6538700000
 H  1.0        11.9939900000       29.2935100000       11.3782900000
 C  6.0        11.2320000000       29.5790000000        8.0610000000
 O  8.0        10.1180000000       29.1210000000        7.8130000000
 N  7.0        12.3756300000       28.9405400000        7.7029000000
 C  6.0        13.7318500000       29.4897300000        7.7674900000
 H  1.0        13.9564194851       29.9338110748        8.7366310969
 H  1.0        13.8542600000       30.2369200000        6.9817900000
 C  6.0        14.6831760277       28.3259456973        7.5135834569
 H  1.0        14.9045618574       27.8195781663        8.4523975511
 H  1.0        15.5994884456       28.6547332685        7.0223676910
 C  6.0        13.8569700000       27.4101500000        6.6204300000
 H  1.0        14.1983800000       26.3753600000        6.6763900000
 H  1.0        13.9093800000       27.7686200000        5.5911200000
 C  6.0        12.4281100000       27.5843500000        7.1486500000
 H  1.0        11.7589200000       27.4980200000        6.3023300000
 C  6.0        12.0762600000       26.4970200000        8.1781800000
 O  8.0        11.6610000000       25.4030000000        7.8000000000
 N  7.0        12.2377500000       26.7779700000        9.4728700000
 H  1.0        12.5396800000       27.7113600000        9.7288400000
 C  6.0        12.0253700000       25.8243800000       10.5720800000
 H  1.0        11.4201600000       24.9878700000       10.2074800000
 C  6.0        13.3599900000       25.2433500000       11.0948700000
 H  1.0        13.1464000000       24.6551100000       11.9882200000
 C  6.0        13.9918100000       24.2973000000       10.0669600000
 H  1.0        14.8734419012       23.8232375328       10.4990121545
 H  1.0        13.2770500000       23.5228700000        9.7893300000
 H  1.0        14.2882100000       24.8492200000        9.1752600000
 C  6.0        14.4005429955       26.3105379527       11.4639282352
 H  1.0        14.6828253767       26.8972335995       10.5917635950
 H  1.0        14.0011187995       26.9794309606       12.2230520612
 H  1.0        15.2970402606       25.8341386956       11.8594080931
 C  6.0        11.2520000000       26.4820000000       11.7140000000
 O  8.0        11.4080000000       27.6810000000       11.9780000000
 N  7.0        10.4310000000       25.6950000000       12.4050000000
 H  1.0        10.3375500000       24.7223700000       12.1599100000
 C  6.0         9.8300000000       26.1670000000       13.6500000000
 H  1.0         9.5435800000       27.2153900000       13.5286200000
 C  6.0         8.5590000000       25.3820000000       14.0000000000
 H  1.0         8.8172300000       24.3387100000       14.1289100000
 H  1.0         8.1563500000       25.7484800000       14.9431300000
 C  6.0         7.4740000000       25.5270000000       12.9450000000
 O  8.0         7.0540000000       26.6340000000       12.6250000000
 N  7.0         7.0190000000       24.4070000000       12.3960000000
 H  1.0         6.5782300000       24.5213000000       11.4846600000
 H  1.0         7.4358100000       23.5286700000       12.6722300000
 C  6.0        10.8600000000       26.0920000000       14.7780000000
 O  8.0        11.5610000000       25.0860000000       14.9220000000
 N  7.0        10.9880000000       27.1940000000       15.5210000000
 H  1.0        10.4013900000       27.9969700000       15.3187600000
 C  6.0        12.0500000000       27.3700000000       16.5220000000
 H  1.0        12.6856700000       26.4859300000       16.5846100000
 C  6.0        12.9645400000       28.5571800000       16.1206600000
 H  1.0        12.3702600000       29.4720300000       16.1211200000
 C  6.0        14.0947000000       28.7215000000       17.1463100000
 H  1.0        14.6742880147       29.6177355813       16.9274236293
 H  1.0        13.7088700000       28.8270200000       18.1596800000
 H  1.0        14.7605700000       27.8608200000       17.0975100000
 C  6.0        13.5586100000       28.3692200000       14.7053200000
 H  1.0        14.1099700000       27.4286900000       14.6673600000
 H  1.0        12.7412200000       28.3142100000       13.9928500000
 C  6.0        14.4871707098       29.4809934105       14.2258669397
 H  1.0        14.6970852357       29.3501785421       13.1639081793
 H  1.0        14.0268423121       30.4565668424       14.3852143942
 H  1.0        15.4219881464       29.4093327367       14.7756515199
 C  6.0        11.4220000000       27.6190000000       17.8940000000
 O  8.0        10.7290000000       28.6260000000       18.0970000000
 N  7.0        11.6480000000       26.7050000000       18.8370000000
 H  1.0        12.2599800000       25.9244600000       18.6462900000
 C  6.0        11.2090000000       26.9260000000       20.1970000000
 H  1.0        10.3638500000       27.6129300000       20.2137800000
 C  6.0        10.7760000000       25.6340000000       20.8930000000
 H  1.0        11.6450700000       24.9883000000       21.0185900000
 C  6.0        10.2130000000       25.9570000000       22.2590000000
 H  1.0         9.8881300000       25.0340200000       22.7323400000
 H  1.0        10.9834900000       26.3992200000       22.8906400000
 H  1.0         9.3796900000       26.6565400000       22.1899400000
 C  6.0         9.7570000000       24.8800000000       20.0320000000
 H  1.0        10.1621700000       24.7219600000       19.0385300000
 H  1.0         9.6092300000       23.8890100000       20.4634700000
 C  6.0         8.3810000000       25.5570000000       19.9320000000
 H  1.0         7.8552000000       25.1579400000       19.0779600000
 H  1.0         7.8015900000       25.3837500000       20.8387500000
 H  1.0         8.4833300000       26.6277500000       19.7674000000
 C  6.0        12.3560000000       27.5770000000       20.9510000000
 O  8.0        13.4130000000       26.9590000000       21.1630000000
 N  7.0        12.1490000000       28.8430000000       21.3130000000
 H  1.0        11.2350100000       29.2546200000       21.1657800000
 C  6.0        13.1940000000       29.6480000000       21.9450000000
 H  1.0        14.1755300000       29.2969700000       21.6259800000
 H  1.0        13.0919800000       30.6853100000       21.6258300000
 C  6.0        13.1540000000       29.6040000000       23.4600000000
 O  8.0        12.2410000000       29.0200000000       24.0620000000
 N  7.0        14.1210000000       30.2840000000       24.0690000000
 H  1.0        14.8066700000       30.7524900000       23.4795400000
 C  6.0        14.3170000000       30.2710000000       25.5170000000
 H  1.0        14.5060200000       29.2516400000       25.8361100000
 C  6.0        15.5270000000       31.1220000000       25.8920000000
 H  1.0        15.4066200000       32.1162300000       25.4577500000
 H  1.0        15.5350500000       31.2220300000       26.9741100000
 C  6.0        16.8570000000       30.5260000000       25.4540000000
 H  1.0        16.9158000000       29.4889700000       25.7833500000
 H  1.0        16.9267300000       30.5308900000       24.3672700000
 C  6.0        18.0360000000       31.2830000000       26.0260000000
 H  1.0        18.0459500000       31.1893100000       27.1127000000
 H  1.0        18.9312100000       30.7902500000       25.6496600000
 N  7.0        18.0870000000       32.6800000000       25.6060000000
 H  1.0        18.4216500000       32.8827200000       24.6765300000
 C  6.0        17.6670000000       33.7160000000       26.3290000000
 N  7.0        17.1010000000       33.5370000000       27.5100000000
 H  1.0        16.9564400000       32.6030700000       27.8687000000
 H  1.0        16.7520200000       34.3240300000       28.0183800000
 N  7.0        17.7630000000       34.9440000000       25.8290000000
 H  1.0        18.1251600000       35.0746800000       24.8849400000
 H  1.0        17.4015000000       35.7172100000       26.3458400000
 C  6.0        13.0890000000       30.7520000000       26.3200000000
 O  8.0        12.8070000000       30.2150000000       27.3830000000
 N  7.0        12.3410000000       31.7220000000       25.7920000000
 H  1.0        12.6077400000       32.1180600000       24.8982400000
 C  6.0        11.1120000000       32.1660000000       26.4420000000
 H  1.0        11.4005300000       32.6271000000       27.3873500000
 C  6.0        10.4030000000       33.2410000000       25.6040000000
 H  1.0         9.6526900000       33.7254300000       26.2273300000
 H  1.0        11.1204200000       33.9981200000       25.2869100000
 C  6.0         9.7290000000       32.6750000000       24.3660000000
 O  8.0        10.3830000000       32.0560000000       23.5330000000
 N  7.0         8.4140000000       32.8830000000       24.2460000000
 H  1.0         7.9469400000       32.6086000000       23.3912400000
 H  1.0         7.9116900000       33.3601300000       24.9644400000
 C  6.0        10.1610000000       31.0120000000       26.8100000000
 O  8.0         9.5050000000       31.0790000000       27.8380000000
 N  7.0        10.1120000000       29.9540000000       25.9930000000
 H  1.0        10.6811900000       29.9543000000       25.1517700000
 C  6.0         9.2450000000       28.8120000000       26.2480000000
 H  1.0         8.5207700000       29.0677800000       27.0209800000
 C  6.0         8.4470000000       28.4170000000       24.9920000000
 H  1.0         9.1554900000       28.1478900000       24.2069100000
 H  1.0         7.8837700000       27.5158000000       25.2394700000
 C  6.0         7.4510000000       29.4320000000       24.4020000000
 H  1.0         8.0225200000       30.2306500000       23.9356100000
 C  6.0         6.5840000000       28.8000000000       23.3270000000
 H  1.0         5.9448900000       29.5600700000       22.8778400000
 H  1.0         7.2246600000       28.3817900000       22.5497800000
 H  1.0         5.9680800000       28.0100300000       23.7550000000
 C  6.0         6.5570000000       30.0610000000       25.4720000000
 H  1.0         5.8531100000       30.7401500000       24.9933900000
 H  1.0         6.0041200000       29.2969800000       26.0058000000
 H  1.0         7.1586800000       30.6373500000       26.1728800000
 C  6.0        10.0030000000       27.5970000000       26.8010000000
 O  8.0         9.4310000000       26.8000000000       27.5420000000
 N  7.0        11.2760000000       27.4530000000       26.4420000000
 H  1.0        11.6720200000       28.0975900000       25.7651500000
 C  6.0        12.0730000000       26.3290000000       26.9200000000
 H  1.0        11.5920500000       25.4003200000       26.6166100000
 C  6.0        13.4830000000       26.3880000000       26.3160000000
 H  1.0        13.8945100000       27.3721200000       26.5224800000
 H  1.0        14.1149000000       25.6737800000       26.8411200000
 C  6.0        13.6080000000       26.0950000000       24.8150000000
 H  1.0        12.9076300000       26.7185200000       24.2750300000
 C  6.0        15.0120000000       26.4160000000       24.3010000000
 H  1.0        15.0390400000       26.2762500000       23.2206500000
 H  1.0        15.2638100000       27.4544300000       24.5054600000
 H  1.0        15.7453600000       25.7555000000       24.7615800000
 C  6.0        13.2430000000       24.6480000000       24.4940000000
 H  1.0        13.3490400000       24.5010100000       23.4204000000
 H  1.0        13.9080600000       23.9637600000       25.0204600000
 H  1.0        12.2082900000       24.4459600000       24.7627500000
 C  6.0        12.1110000000       26.3260000000       28.4500000000
 O  8.0        11.9730000000       25.2710000000       29.0880000000
 N  7.0        12.2310000000       27.5090000000       29.0510000000
 H  1.0        12.2960600000       28.3604600000       28.5011300000
 C  6.0        12.1980000000       27.5910000000       30.5050000000
 H  1.0        12.9877700000       26.9536900000       30.9024400000
 C  6.0        12.4470000000       29.0130000000       31.0150000000
 H  1.0        12.3848000000       28.9961900000       32.0977400000
 C  6.0        13.8480000000       29.4750000000       30.6280000000
 H  1.0        14.0058700000       30.4898500000       30.9877600000
 H  1.0        14.5869500000       28.8205000000       31.0882400000
 H  1.0        13.9785200000       29.4643300000       29.5472200000
 O  8.0        11.4430000000       29.9020000000       30.5050000000
 H  1.0        11.7700900000       30.7973800000       30.6271100000
 C  6.0        10.8790000000       27.0730000000       31.0870000000
 O  8.0        10.8840000000       26.3730000000       32.0910000000
 N  7.0         9.7680000000       27.3600000000       30.4180000000
 H  1.0         9.8336200000       27.8951700000       29.5622100000
 C  6.0         8.4590000000       26.9940000000       30.9470000000
 H  1.0         8.3929800000       27.3403000000       31.9790100000
 C  6.0         7.3540000000       27.6690000000       30.1520000000
 H  1.0         7.3822400000       27.3167000000       29.1199300000
 H  1.0         6.4022000000       27.3555800000       30.5846900000
 C  6.0         7.4090000000       29.1920000000       30.1580000000
 H  1.0         7.4073800000       29.5558200000       31.1851400000
 H  1.0         8.3291300000       29.5233500000       29.6771700000
 C  6.0         6.2250000000       29.8070000000       29.4230000000
 O  8.0         5.2240000000       29.1340000000       29.1700000000
 N  7.0         6.3310000000       31.0820000000       29.0800000000
 H  1.0         7.2085700000       31.5643800000       29.1700200000
 H  1.0         5.5212700000       31.4914900000       28.6295000000
 C  6.0         8.2380000000       25.4780000000       30.9680000000
 O  8.0         7.4740000000       24.9700000000       31.7860000000
 N  7.0         8.8600000000       24.7670000000       30.0330000000
 H  1.0         9.4152900000       25.2403800000       29.3271800000
 C  6.0         8.7330000000       23.3140000000       30.0080000000
 H  1.0         7.8109200000       23.0243400000       30.5117000000
 C  6.0         8.6140000000       22.7680000000       28.5690000000
 H  1.0         8.3029500000       21.7249800000       28.6349100000
 C  6.0         7.5480000000       23.5410000000       27.8220000000
 H  1.0         7.2773100000       23.0095400000       26.9129400000
 H  1.0         6.6499400000       23.6342700000       28.4341600000
 H  1.0         7.9024600000       24.5368800000       27.5518500000
 C  6.0         9.9580000000       22.8130000000       27.8380000000
 H  1.0        10.2618300000       23.8496000000       27.7032200000
 H  1.0        10.7276400000       22.3053500000       28.4174600000
 C  6.0         9.9360000000       22.1350000000       26.4720000000
 H  1.0        10.9468400000       22.1145700000       26.0631700000
 H  1.0         9.5714700000       21.1112000000       26.5671200000
 H  1.0         9.2975400000       22.6905300000       25.7867500000
 C  6.0         9.8600000000       22.6110000000       30.7610000000
 O  8.0         9.8940000000       21.3830000000       30.8040000000
 N  7.0        10.7570000000       23.3870000000       31.3710000000
 H  1.0        10.6840000000       24.3926500000       31.2739500000
 C  6.0        11.7360000000       22.8420000000       32.3080000000
 H  1.0        12.0181900000       23.6273400000       33.0084300000
 H  1.0        11.3004400000       22.0140100000       32.8681400000
 C  6.0        12.9970000000       22.3520000000       31.6230000000
 O  8.0        13.6880000000       21.4690000000       32.1470000000
 N  7.0        13.3100000000       22.9300000000       30.4640000000
 H  1.0        12.7244700000       23.6752400000       30.1020600000
 C  6.0        14.4450000000       22.4810000000       29.6570000000
 H  1.0        14.6486800000       21.4411100000       29.7954700000
 C  6.0        14.1830000000       22.7440000000       28.1660000000
 H  1.0        13.2183500000       22.3094100000       27.8991000000
 H  1.0        14.1249700000       23.8193100000       28.0036000000
 S 16.0        15.4320000000       22.0430000000       27.0780000000
 H  1.0        16.4800600000       22.7578100000       27.5077600000
 C  6.0        15.7570000000       23.1440000000       30.0920000000
 O  8.0        15.8280000000       24.3600000000       30.2460000000
 N  7.0        16.7850000000       22.3310000000       30.3210000000
 H  1.0        16.6497400000       21.3250300000       30.2705000000
 C  6.0        18.1280000000       22.8260000000       30.6000000000
 H  1.0        18.1778700000       23.9052400000       30.4582500000
 C  6.0        18.5750000000       22.5100000000       32.0560000000
 H  1.0        19.5729500000       22.9136600000       32.2250000000
 C  6.0        17.6230000000       23.1240000000       33.0730000000
 H  1.0        18.0338100000       22.9888400000       34.0728400000
 H  1.0        17.5016200000       24.1863900000       32.8690900000
 H  1.0        16.6515200000       22.6312800000       33.0194000000
 O  8.0        18.6100000000       21.0960000000       32.2590000000
 H  1.0        19.3483800000       20.7025700000       31.7642600000
 C  6.0        19.1460000000       22.1920000000       29.6440000000
 O  8.0        18.8690000000       21.1670000000       29.0160000000
 N  7.0        20.3220000000       22.8160000000       29.5590000000
 H  1.0        20.4669800000       23.6505800000       30.1175400000
 C  6.0        21.4920000000       22.2490000000       28.8950000000
 H  1.0        21.1840600000       21.4816200000       28.1855100000
 C  6.0        22.2740000000       23.3420000000       28.1560000000
 H  1.0        22.2269800000       24.2432500000       28.7657100000
 H  1.0        23.3251500000       23.0491300000       28.1149000000
 C  6.0        21.8700000000       23.7120000000       26.7340000000
 H  1.0        20.7879600000       23.8247200000       26.7402800000
 C  6.0        22.5110000000       25.0330000000       26.3500000000
 H  1.0        22.3075700000       25.2543700000       25.3028500000
 H  1.0        22.1113500000       25.8353200000       26.9677300000
 H  1.0        23.5912900000       24.9746400000       26.4814400000
 C  6.0        22.2540000000       22.6200000000       25.7300000000
 H  1.0        21.5656000000       22.6760600000       24.8981200000
 H  1.0        23.2565000000       22.8056200000       25.3557800000
 H  1.0        22.1788600000       21.6281900000       26.1730800000
 C  6.0        22.4120000000       21.6120000000       29.9360000000
 O  8.0        22.6320000000       22.1650000000       31.0160000000
 N  7.0        22.9540000000       20.4490000000       29.6140000000
 H  1.0        22.6786400000       19.9917300000       28.7488400000
 C  6.0        23.7900000000       19.7250000000       30.5660000000
 H  1.0        24.1784300000       20.4159500000       31.3156400000
 C  6.0        22.9720000000       18.6540000000       31.2910000000
 H  1.0        22.6246900000       17.9222700000       30.5639700000
 H  1.0        23.6076500000       18.1357500000       32.0073200000
 C  6.0        21.7740000000       19.2300000000       32.0080000000
 O  8.0        20.7520000000       19.5330000000       31.3860000000
 N  7.0        21.9040000000       19.4240000000       33.3220000000
 H  1.0        21.0868100000       19.7436200000       33.8289100000
 H  1.0        22.7471300000       19.1607100000       33.7917600000
 C  6.0        24.9900000000       19.0800000000       29.8950000000
 O  8.0        24.8610000000       18.4540000000       28.8510000000
 N  7.0        26.1590000000       19.2470000000       30.5020000000
 H  1.0        26.2266700000       19.7985600000       31.3513000000
 C  6.0        27.3520000000       18.5070000000       30.0880000000
 H  1.0        27.0868500000       17.4697000000       29.8829900000
 C  6.0        27.9770000000       19.1080000000       28.8170000000
 H  1.0        28.8200200000       18.4896100000       28.5254500000
 H  1.0        27.2875000000       19.1265100000       28.0217700000
 C  6.0        28.4190000000       20.5400000000       28.9660000000
 C  6.0        27.4950000000       21.5730000000       28.9290000000
 H  1.0        26.4496000000       21.3519200000       28.7681100000
 C  6.0        27.9000000000       22.8950000000       29.0520000000
 H  1.0        27.1733200000       23.6876400000       28.9790400000
 C  6.0        29.2380000000       23.1900000000       29.2240000000
 H  1.0        29.5572800000       24.2187800000       29.3047600000
 C  6.0        30.1670000000       22.1690000000       29.2720000000
 H  1.0        31.2166100000       22.3992600000       29.3923300000
 C  6.0        29.7570000000       20.8510000000       29.1320000000
 H  1.0        30.4891600000       20.0542700000       29.1576100000
 C  6.0        28.3500000000       18.4970000000       31.2380000000
 O  8.0        29.3970000000       17.8570000000       31.1690000000
 O  8.0        28.0980000000       19.1160000000       32.2730000000
 O  8.0        20.1223721857       32.4142899641       11.3818558146
 H  1.0        20.5349744287       31.5401556998       11.5003665362
 H  1.0        19.5590284403       32.4706302258       12.1727443723
 C  6.0        22.8393022610       25.2523784764        5.8168971287
 C  6.0        23.9823731042       25.1170792666        6.6212297057
 C  6.0        21.6670305492       25.8521836909        6.3241640608
 C  6.0        23.9677977680       25.5804220116        7.9448869212
 C  6.0        21.6740197029       26.3361146415        7.6506566054
 C  6.0        20.4427405248       25.9565508762        5.4471400815
 C  6.0        22.8154833820       26.1966304410        8.4582232796
 C  6.0        19.1558552229       26.5424112853        6.0175630605
 O  8.0        20.4632469808       25.5835007640        4.2863907562
 N  7.0        22.7930719078       26.6539616708        9.7966361174
 C  6.0        22.9955610633       28.0528194112       10.1363214816
 C  6.0        22.5510213399       25.8804838347       10.9075728181
 C  6.0        22.8439313470       28.0797697982       11.6680362256
 O  8.0        22.3149757160       24.6895668296       10.9470368823
 O  8.0        22.6415004156       26.6889007608       11.9936189367
 C  6.0        21.6644851275       28.9526299123       12.1377831581
 N  7.0        20.9476384542       28.4799937511       13.2129771281
 O  8.0        21.3742742250       29.9983164639       11.5886304721
 C  6.0        19.7979210004       29.1588150154       13.8308368571
 C  6.0        20.0745164024       29.2685762386       15.3546016099
 C  6.0        18.4830631643       28.3983361556       13.5007109667
 C  6.0        19.1254016237       30.2139432450       16.1317389830
 O  8.0        19.9784762780       27.9557436722       15.9042343912
 C  6.0        18.2314676187       28.2251799970       12.0118494425
 N  7.0        19.1665992796       31.6515312970       15.7476414974
 C  6.0        18.7396696046       27.0993360550       11.3372058846
 C  6.0        17.4653000500       29.1692047515       11.3081618313
 S 16.0        17.9492776132       32.3427230202       14.7670785095
 C  6.0        20.1017963779       32.5424171188       16.4753926706
 C  6.0        18.5006032445       26.9271874818        9.9650225970
 C  6.0        17.2157821327       28.9915397904        9.9383136397
 C  6.0        17.1985275147       33.6596738350       15.7483796996
 O  8.0        18.6164082438       32.8694372745       13.5784938657
 O  8.0        16.8963741375       31.3470909541       14.6160554772
 C  6.0        21.5878907834       32.4057601467       16.0549628524
 C  6.0        17.7427641611       27.8782815665        9.2638711779
 C  6.0        17.3472094515       34.9902296083       15.3329562521
 C  6.0        16.4511553303       33.3819595114       16.9060572255
 C  6.0        21.8011445875       32.5758952670       14.5332463776
 C  6.0        22.4437532908       33.4395828908       16.8144041400
 C  6.0        16.7869867376       36.0361197449       16.0813767395
 C  6.0        15.8840939350       34.4282959822       17.6559418946
 C  6.0        16.0473088393       35.7716702718       17.2417761041
 F  9.0        15.2199713552       34.1142397290       18.7854381244
 O  8.0        15.5333080619       36.8718058448       17.9061419840
 C  6.0        14.3409866775       36.8362279745       18.7114371736
 H  1.0        22.8596147124       24.8724119320        4.7982627936
 H  1.0        24.8754293396       24.6383092362        6.2267862116
 H  1.0        24.8490567812       25.4543269946        8.5707766697
 H  1.0        20.7966327166       26.8147637432        8.0733532812
 H  1.0        19.3251407743       27.5677174253        6.3645822706
 H  1.0        18.3772439924       26.5556285617        5.2459355784
 H  1.0        18.8107887840       25.9289088599        6.8572295301
 H  1.0        22.2221078722       28.6652322326        9.6594427705
 H  1.0        23.9895184574       28.3947259802        9.8213284202
 H  1.0        23.7561327874       28.4496523550       12.1514957356
 H  1.0        21.2497573407       27.6108811492       13.6346052342
 H  1.0        19.7164127530       30.1735965879       13.4227160215
 H  1.0        21.1008220977       29.6302171435       15.4873136855
 H  1.0        18.4991836807       27.4065218316       13.9695419948
 H  1.0        17.6375388570       28.9208544768       13.9598837250
 H  1.0        18.1071411295       29.8255627474       16.0225313507
 H  1.0        19.3683107253       30.1175844169       17.1986734324
 H  1.0        20.5200452436       27.9251284674       16.7426092663
 H  1.0        19.3202450985       26.3585002420       11.8816510721
 H  1.0        17.0586138945       30.0324445712       11.8283610618
 H  1.0        19.8124481318       33.5897174636       16.3214215354
 H  1.0        20.0220182324       32.3496301051       17.5532258097
 H  1.0        18.8941931433       26.0532650796        9.4540058575
 H  1.0        16.6156310954       29.7181588651        9.4003792638
 H  1.0        21.9432914450       31.4101768798       16.3476575701
 H  1.0        17.5541313546       27.7499887616        8.2032204872
 H  1.0        17.9046140032       35.2065096649       14.4275748860
 H  1.0        16.3141643699       32.3534805240       17.2174009114
 H  1.0        22.8672914032       32.5150855450       14.2810368109
 H  1.0        21.2913779885       31.7835098920       13.9746731710
 H  1.0        21.4171396152       33.5402317719       14.1844366206
 H  1.0        22.1370955958       34.4652201970       16.5749931776
 H  1.0        22.3501976938       33.2956640531       17.8987784233
 H  1.0        23.5031980399       33.3274032450       16.5532287116
 H  1.0        16.9287778675       37.0634011048       15.7645895201
 H  1.0        14.0276375862       37.8554518906       18.9698179691
 H  1.0        13.5233801276       36.3480196816       18.1657928429
 H  1.0        14.5145434736       36.2954239508       19.6485617803
 $end
