! contains  3137 atoms
!*** FMO 5.3 (Gamess) INPUT generated by Facio 22.1.1.32 ***
 $CONTRL RUNTYP=ENERGY NPRINT=-5 ISPHER=-1 MAXIT=80 $END
 $SYSTEM MWORDS=300 $END
 $GDDI NGROUP=4 $END
 $SCF DIRSCF=.TRUE. NPUNCH=0 SWDIIS=1E-3 DIRTHR=1E-9 CONV=3E-8 $END
 $PCM modpar=2 SOLVNT=WATER IEF=-10 ICOMP=2 ICAV=0 IDISP=0 IFMO=-1 $END
 $BASIS GBASIS=DFTB $END
 $DFTB
   SCC=.TRUE. DFTB3=.TRUE. DAMPXH=.TRUE. DAMPEX=4.00
 $END
 $DFTBSK
   N N "/mnt/lustre/koa/lab/tsqc_group/loreab/dtfb_parameters/N-N.skf"            
   N C "/mnt/lustre/koa/lab/tsqc_group/loreab/dtfb_parameters/N-C.skf"            
   N O "/mnt/lustre/koa/lab/tsqc_group/loreab/dtfb_parameters/N-O.skf"            
   N H "/mnt/lustre/koa/lab/tsqc_group/loreab/dtfb_parameters/N-H.skf"            
   C N "/mnt/lustre/koa/lab/tsqc_group/loreab/dtfb_parameters/C-N.skf"            
   C C "/mnt/lustre/koa/lab/tsqc_group/loreab/dtfb_parameters/C-C.skf"            
   C O "/mnt/lustre/koa/lab/tsqc_group/loreab/dtfb_parameters/C-O.skf"            
   C H "/mnt/lustre/koa/lab/tsqc_group/loreab/dtfb_parameters/C-H.skf"            
   C S "/mnt/lustre/koa/lab/tsqc_group/loreab/dtfb_parameters/C-S.skf"            
   O N "/mnt/lustre/koa/lab/tsqc_group/loreab/dtfb_parameters/O-N.skf"            
   O C "/mnt/lustre/koa/lab/tsqc_group/loreab/dtfb_parameters/O-C.skf"            
   Cl O "/mnt/lustre/koa/lab/tsqc_group/loreab/dtfb_parameters/Cl-O.skf"          
   Cl H "/mnt/lustre/koa/lab/tsqc_group/loreab/dtfb_parameters/Cl-H.skf"          
   Cl S "/mnt/lustre/koa/lab/tsqc_group/loreab/dtfb_parameters/Cl-S.skf"          
   Cl C "/mnt/lustre/koa/lab/tsqc_group/loreab/dtfb_parameters/Cl-C.skf"          
   Cl N "/mnt/lustre/koa/lab/tsqc_group/loreab/dtfb_parameters/Cl-N.skf"          
   Cl F "/mnt/lustre/koa/lab/tsqc_group/loreab/dtfb_parameters/Cl-F.skf"          
   O Cl "/mnt/lustre/koa/lab/tsqc_group/loreab/dtfb_parameters/O-Cl.skf"          
   H Cl "/mnt/lustre/koa/lab/tsqc_group/loreab/dtfb_parameters/H-Cl.skf"          
   S Cl "/mnt/lustre/koa/lab/tsqc_group/loreab/dtfb_parameters/S-Cl.skf"          
   C Cl "/mnt/lustre/koa/lab/tsqc_group/loreab/dtfb_parameters/C-Cl.skf"          
   N Cl "/mnt/lustre/koa/lab/tsqc_group/loreab/dtfb_parameters/N-Cl.skf"          
   F Cl "/mnt/lustre/koa/lab/tsqc_group/loreab/dtfb_parameters/F-Cl.skf"          
   Cl Cl "/mnt/lustre/koa/lab/tsqc_group/loreab/dtfb_parameters/Cl-Cl.skf"     
   O O "/mnt/lustre/koa/lab/tsqc_group/loreab/dtfb_parameters/O-O.skf"            
   O H "/mnt/lustre/koa/lab/tsqc_group/loreab/dtfb_parameters/O-H.skf"            
   O S "/mnt/lustre/koa/lab/tsqc_group/loreab/dtfb_parameters/O-S.skf"            
   H N "/mnt/lustre/koa/lab/tsqc_group/loreab/dtfb_parameters/H-N.skf"            
   H C "/mnt/lustre/koa/lab/tsqc_group/loreab/dtfb_parameters/H-C.skf"            
   H O "/mnt/lustre/koa/lab/tsqc_group/loreab/dtfb_parameters/H-O.skf"            
   H H "/mnt/lustre/koa/lab/tsqc_group/loreab/dtfb_parameters/H-H.skf"            
   H S "/mnt/lustre/koa/lab/tsqc_group/loreab/dtfb_parameters/H-S.skf"            
   N S "/mnt/lustre/koa/lab/tsqc_group/loreab/dtfb_parameters/N-S.skf"            
   S N "/mnt/lustre/koa/lab/tsqc_group/loreab/dtfb_parameters/S-N.skf"            
   S C "/mnt/lustre/koa/lab/tsqc_group/loreab/dtfb_parameters/S-C.skf"            
   S O "/mnt/lustre/koa/lab/tsqc_group/loreab/dtfb_parameters/S-O.skf"            
   S H "/mnt/lustre/koa/lab/tsqc_group/loreab/dtfb_parameters/S-H.skf"            
   S S "/mnt/lustre/koa/lab/tsqc_group/loreab/dtfb_parameters/S-S.skf"            
   F F "/mnt/lustre/koa/lab/tsqc_group/loreab/dtfb_parameters/F-F.skf"            
   F N "/mnt/lustre/koa/lab/tsqc_group/loreab/dtfb_parameters/F-N.skf"            
   F H "/mnt/lustre/koa/lab/tsqc_group/loreab/dtfb_parameters/F-H.skf"            
   F C "/mnt/lustre/koa/lab/tsqc_group/loreab/dtfb_parameters/F-C.skf"            
   F O "/mnt/lustre/koa/lab/tsqc_group/loreab/dtfb_parameters/F-O.skf"            
   F S "/mnt/lustre/koa/lab/tsqc_group/loreab/dtfb_parameters/F-S.skf"            
   N F "/mnt/lustre/koa/lab/tsqc_group/loreab/dtfb_parameters/N-F.skf"            
   H F "/mnt/lustre/koa/lab/tsqc_group/loreab/dtfb_parameters/H-F.skf"            
   C F "/mnt/lustre/koa/lab/tsqc_group/loreab/dtfb_parameters/C-F.skf"            
   O F "/mnt/lustre/koa/lab/tsqc_group/loreab/dtfb_parameters/O-F.skf"            
   S F "/mnt/lustre/koa/lab/tsqc_group/loreab/dtfb_parameters/S-F.skf"            
 $END
 $DFT DC=.TRUE. IDCVER=4 DCS6=1.0 DCS8=3.209 DCA1=0.746 DCA2=4.191 $END
 $PCMCAV RADII=SUAHF $END
 $TESCAV NTSALL=60 $END
 $FMOLMO
 DFTB-C 4 4
   1 0  0.558756  0.000000  0.000000  0.829332
   0 1  0.558757  0.781901  0.000000 -0.276445
   0 1  0.558756 -0.390951  0.677146 -0.276445
   0 1  0.558756 -0.390951 -0.677146 -0.276445
 $END
 $FMOPRP
    NAODIR=210
    MAXIT=100
    NCVSCF=2 MCONV(2)=768
    MCONV(4)=768
    nprint=1
ipieda=1
    !modpar=1033
    CONV=3E-7
 $END
 $FMO
      SCFTYP(1)=RHF
      MODMUL=0
      MAXCAO=5
      MAXBND=86
      NFRAG=89
      ICHARG(1)=   1,  0,  0,  2,  0,  0,  1,  0,  1, -1,
                   0, -1, -2,  0, -1, -1,  0,  0,  1,  1,
                   1,  0,  0,  1,  1, -1,  0,  0, -1,  0,
                   1,  0,  0,  0,  0,  0,  0,  0,  1,  0,
                   0,  0,  0,  0, -1,  1,  0,  0,  2,  0,
                   0,  1,  0,  1, -1,  0, -1,  0, -2,  0,
                  -1, -1,  0,  0,  2,  1,  0,  0,  1,  1,
                  -1,  0,  0, -1,  0,  1,  0,  0,  0,  0,
                   0,  0,  1,  0,  0,  0, -1,  0,  0
      FRGNAM(1)= Pro-1, Ile-3, Leu-5, Lys-7, Pro-9, 
                 Val-11, Ile-13, Ile-15, Gly-17, Glu-21, 
                 Leu-23, Asp-25, Gly-27, Thr-31, Leu-33, 
                 Glu-35, Asn-37, Pro-39, Lys-41, Lys-43, 
                 Lys-45, Ile-47, Gly-49, Lys-55, Arg-57, 
                 Tyr-59, Gln-61, Pro-63, Glu-65, Cys-67, 
                 His-69, Ala-71, Gly-73, Val-77, Pro-79, 
                 Pro-81, Asn-83, Ile-85, Arg-87, Leu-89, 
                 Thr-91, Ile-93, Cys-95, Leu-97, Phe-99, 
                 Pro-100, Ile-102, Leu-104, Lys-106, Pro-108, 
                 Val-110, Ile-112, Ile-114, Gly-116, Glu-120, 
                 Leu-122, Asp-124, Gly-126, Asp-128, Thr-130, 
                 Leu-132, Glu-134, Asn-136, Pro-138, Lys-140, 
                 Lys-144, Ile-146, Gly-148, Phe-152, Arg-156, 
                 Tyr-158, Gln-160, Pro-162, Glu-164, Cys-166, 
                 His-168, Gly-172, Val-174, Val-176, Pro-178, 
                 Asn-182, Ile-184, Arg-186, Thr-190, Ile-192, 
                 Cys-194, Phe-198, HOH1, Lig1
      INDAT(1)= 0
                1    -31      0
               32    -64      0
               65   -107      0
              108   -153      0
              154   -186      0
              187   -216      0
              217   -259      0
              260   -285      0
              286   -350      0
              351   -375      0
              376   -413      0
              414   -439      0
              440   -480      0
              481   -510      0
              511   -544      0
              545   -576      0
              577   -609      0
              610   -630      0
              631   -676      0
              677   -712      0
              713   -751      0
              752   -777      0
              778   -856      0
              857   -894      0
              895   -935      0
              936   -968      0
              969  -1004      0
             1005  -1037      0
             1038  -1071      0
             1072  -1089      0
             1090  -1128      0
             1129  -1157      0
             1158  -1213      0
             1214  -1236      0
             1237  -1264      0
             1265  -1294      0
             1295  -1327      0
             1328  -1353      0
             1354  -1391      0
             1392  -1429      0
             1430  -1460      0
             1461  -1486      0
             1487  -1511      0
             1512  -1544      0
             1545  -1567      0
             1568  -1598      0
             1599  -1631      0
             1632  -1674      0
             1675  -1720      0
             1721  -1753      0
             1754  -1783      0
             1784  -1826      0
             1827  -1852      0
             1853  -1917      0
             1918  -1942      0
             1943  -1980      0
             1981  -2006      0
             2007  -2023      0
             2024  -2047      0
             2048  -2077      0
             2078  -2111      0
             2112  -2143      0
             2144  -2176      0
             2177  -2197      0
             2198  -2279      0
             2280  -2318      0
             2319  -2344      0
             2345  -2384      0
             2385  -2461      0
             2462  -2502      0
             2503  -2535      0
             2536  -2571      0
             2572  -2604      0
             2605  -2638      0
             2639  -2656      0
             2657  -2724      0
             2725  -2745      0
             2746  -2780      0
             2781  -2803      0
             2804  -2861      0
             2862  -2894      0
             2895  -2920      0
             2921  -2996      0
             2997  -3027      0
             3028  -3053      0
             3054  -3111      0
             3112  -3134      0
             3135  -3137      0
             3138  -LIG      0
 $END
 $FMOBND
       -19        32  DFTB-C
       -55        65  DFTB-C
       -88       108  DFTB-C
      -134       154  DFTB-C
      -172       187  DFTB-C
      -207       217  DFTB-C
      -240       260  DFTB-C
      -283       286  DFTB-C
      -333       351  DFTB-C
      -370       376  DFTB-C
      -399       414  DFTB-C
      -430       440  DFTB-C
      -473       481  DFTB-C
      -499       511  DFTB-C
      -534       545  DFTB-C
      -564       577  DFTB-C
      -595       610  DFTB-C
      -628       631  DFTB-C
      -657       677  DFTB-C
      -711       713  DFTB-C
      -739       752  DFTB-C
      -775       778  DFTB-C
      -842       857  DFTB-C
      -883       895  DFTB-C
      -923       936  DFTB-C
      -961       969  DFTB-C
      -990      1005  DFTB-C
     -1023      1038  DFTB-C
     -1057      1072  DFTB-C
     -1087      1090  DFTB-C
     -1111      1129  DFTB-C
     -1143      1158  DFTB-C
     -1199      1214  DFTB-C
     -1234      1237  DFTB-C
     -1255      1265  DFTB-C
     -1283      1295  DFTB-C
     -1313      1328  DFTB-C
     -1351      1354  DFTB-C
     -1382      1392  DFTB-C
     -1415      1430  DFTB-C
     -1448      1461  DFTB-C
     -1484      1487  DFTB-C
     -1502      1512  DFTB-C
     -1535      1545  DFTB-C
     -1586      1599  DFTB-C
     -1622      1632  DFTB-C
     -1655      1675  DFTB-C
     -1701      1721  DFTB-C
     -1739      1754  DFTB-C
     -1774      1784  DFTB-C
     -1807      1827  DFTB-C
     -1850      1853  DFTB-C
     -1900      1918  DFTB-C
     -1937      1943  DFTB-C
     -1966      1981  DFTB-C
     -1997      2007  DFTB-C
     -2018      2024  DFTB-C
     -2040      2048  DFTB-C
     -2066      2078  DFTB-C
     -2101      2112  DFTB-C
     -2131      2144  DFTB-C
     -2162      2177  DFTB-C
     -2195      2198  DFTB-C
     -2278      2280  DFTB-C
     -2306      2319  DFTB-C
     -2342      2345  DFTB-C
     -2382      2385  DFTB-C
     -2450      2462  DFTB-C
     -2490      2503  DFTB-C
     -2528      2536  DFTB-C
     -2557      2572  DFTB-C
     -2590      2605  DFTB-C
     -2624      2639  DFTB-C
     -2654      2657  DFTB-C
     -2710      2725  DFTB-C
     -2736      2746  DFTB-C
     -2766      2781  DFTB-C
     -2801      2804  DFTB-C
     -2850      2862  DFTB-C
     -2880      2895  DFTB-C
     -2918      2921  DFTB-C
     -2982      2997  DFTB-C
     -3015      3028  DFTB-C
     -3051      3054  DFTB-C
     -3102      3112  DFTB-C
 $END
 $DATA
 FMO 2res per frag
 C1 
 N    7
 H    1
 C    6
 O    8
 F    9
 S   16
 $END
 $FMOXYZ
