 $FMOPRP MODPAR=8205 NAODIR=210 MAXIT=100
     $END
 $FMO
      SCFTYP(1)=RHF
      MODGRD=10
      MODMUL=0
      MAXCAO=5
      MAXBND=4
      NLAYER=1
      NFRAG=4
      ICHARG(1)=   0, 0, 0, 0
      FRGNAM(1)= Frag1, Frag2, Frag3, Frag4
      INDAT(1)= 0
                    1   -12    43   -50     0
                   13   -20    22   -23    25   -26    29    51
                  -56    59   -62    65     0
                   21    24    27   -28    31   -33    36   -42
                   57   -58    63   -64    73   -79     0
                   30    34   -35    66   -72     0
 $END
 $FMOBND
         -12      13  DFTB-C
         -18      21  DFTB-C
         -27      30  DFTB-C
 $END
 $DATA
 FMO calculation : umass_1_kb_02_2d_vm2_vchem
 C1 
 C   6
 N   7
 O   8
 S   16
 H   1
 $END
 $FMOXYZ
      1      C       24.4120000000     27.5380000000      7.5620000000
      2      C       24.6070000000     28.5110000000      8.5440000000
      3      C       23.5260000000     26.4860000000      7.8040000000
      4      C       23.9270000000     28.4390000000      9.7590000000
      5      C       22.8380000000     26.3970000000      9.0130000000
      6      C       23.0320000000     27.3790000000     10.0030000000
      7      N       22.3350000000     27.3240000000     11.2370000000
      8      C       21.3880000000     26.3970000000     11.6200000000
      9      C       22.5250000000     28.3270000000     12.2780000000
     10      O       20.9860000000     25.4020000000     10.9990000000
     11      O       20.8980000000     26.7060000000     12.8600000000
     12      C       21.4850000000     27.9370000000     13.3410000000
     13      C       20.3850000000     29.0130000000     13.5020000000
     14      O       20.6910000000     30.2180000000     13.4780000000
     15      N       19.1080000000     28.5700000000     13.6900000000
     16      C       17.9760000000     29.5000000000     13.5490000000
     17      C       17.3890000000     29.4180000000     12.1090000000
     18      C       16.9010000000     29.2060000000     14.6370000000
     19      C       18.4740000000     29.4850000000     11.0580000000
     20      O       16.2750000000     27.9430000000     14.3900000000
     21      C       15.7620000000     30.2490000000     14.7110000000
     22      C       18.8710000000     28.3270000000     10.3750000000
     23      C       19.1300000000     30.6940000000     10.7860000000
     24      N       16.1760000000     31.6400000000     15.0160000000
     25      C       19.9000000000     28.3780000000      9.4320000000
     26      C       20.1650000000     30.7410000000      9.8520000000
     27      C       16.5140000000     32.5620000000     13.9040000000
     28      S       16.8240000000     31.9840000000     16.5490000000
     29      C       20.5530000000     29.5840000000      9.1730000000
     30      C       15.3620000000     32.7510000000     12.8930000000
     31      O       16.5830000000     33.4100000000     16.8000000000
     32      O       16.2680000000     30.9910000000     17.4740000000
     33      C       18.6070000000     31.7370000000     16.4280000000
     34      C       14.0920000000     33.2540000000     13.5850000000
     35      C       15.8130000000     33.7040000000     11.7810000000
     36      C       19.2030000000     30.5570000000     16.9050000000
     37      C       19.4090000000     32.7210000000     15.8160000000
     38      C       20.5720000000     30.3440000000     16.7630000000
     39      C       20.7760000000     32.5250000000     15.6770000000
     40      C       21.3660000000     31.3270000000     16.1350000000
     41      O       22.7010000000     31.2060000000     15.9590000000
     42      C       23.3490000000     30.0080000000     16.3670000000
     43      H       24.9440000000     27.6000000000      6.6160000000
     44      H       25.2930000000     29.3350000000      8.3660000000
     45      H       23.3680000000     25.7240000000      7.0450000000
     46      H       24.0900000000     29.2060000000     10.5090000000
     47      H       22.1500000000     25.5770000000      9.1890000000
     48      H       23.5540000000     28.3050000000     12.6710000000
     49      H       22.3390000000     29.3460000000     11.9030000000
     50      H       21.9470000000     27.7280000000     14.3240000000
     51      H       18.9190000000     27.5740000000     13.5610000000
     52      H       18.4030000000     30.5020000000     13.7150000000
     53      H       16.8280000000     28.4840000000     12.0130000000
     54      H       16.6760000000     30.2400000000     11.9760000000
     55      H       17.4150000000     29.1560000000     15.6210000000
     56      H       16.9250000000     27.2250000000     14.4990000000
     57      H       15.2060000000     30.2600000000     13.7690000000
     58      H       15.0590000000     29.9230000000     15.4880000000
     59      H       18.3720000000     27.3830000000     10.5820000000
     60      H       18.8340000000     31.5960000000     11.3170000000
     61      H       20.1960000000     27.4750000000      8.9060000000
     62      H       20.6720000000     31.6820000000      9.6550000000
     63      H       16.7580000000     33.5320000000     14.3510000000
     64      H       17.4210000000     32.2280000000     13.3660000000
     65      H       21.3600000000     29.6200000000      8.4470000000
     66      H       15.1390000000     31.7790000000     12.4280000000
     67      H       14.2660000000     34.2170000000     14.0600000000
     68      H       13.2830000000     33.3710000000     12.8670000000
     69      H       13.7700000000     32.5540000000     14.3520000000
     70      H       16.0410000000     34.6900000000     12.1810000000
     71      H       16.7080000000     33.3260000000     11.2900000000
     72      H       15.0350000000     33.8160000000     11.0300000000
     73      H       18.5890000000     29.8080000000     17.3980000000
     74      H       18.9530000000     33.6410000000     15.4600000000
     75      H       21.0050000000     29.4230000000     17.1380000000
     76      H       21.3940000000     33.2820000000     15.2050000000
     77      H       24.4080000000     30.1110000000     16.1180000000
     78      H       23.2440000000     29.8510000000     17.4490000000
     79      H       22.9350000000     29.1380000000     15.8360000000
 $END
