 $FMOPRP MODPAR=8205 NAODIR=210 MAXIT=100
     $END
 $FMO
      SCFTYP(1)=RHF
      MODGRD=10
      MODMUL=0
      MAXCAO=5
      MAXBND=4
      NLAYER=1
      NFRAG=4
      ICHARG(1)=   0, 0, 0, 0
      FRGNAM(1)= Frag1, Frag2, Frag3, Frag4
      INDAT(1)= 0
                    1   -16    48   -54     0
                   17   -23    25    27   -28    31   -32    37
                   55   -60    63   -64    67   -68    70     0
                   24    26    29   -30    34   -36    40   -47
                   61   -62    65   -66    77   -82     0
                   33    38   -39    69    71   -76     0
 $END
 $FMOBND
         -14      17  DFTB-C
         -21      24  DFTB-C
         -29      33  DFTB-C
 $END
 $DATA
 FMO calculation : umass_1_kb_59_2d_vm2_vchem
 C1 
 C   6
 N   7
 O   8
 S   16
 F   9
 H   1
 $END
 $FMOXYZ
      1      C       21.6400000000     27.7650000000      6.5150000000
      2      C       22.6320000000     27.7780000000      7.4990000000
      3      C       20.3640000000     27.2740000000      6.8320000000
      4      C       22.3650000000     27.3160000000      8.7850000000
      5      C       19.2540000000     27.2720000000      5.8070000000
      6      C       20.0820000000     26.8010000000      8.1220000000
      7      C       21.0830000000     26.8270000000      9.1120000000
      8      F       18.2330000000     28.1280000000      6.1540000000
      9      F       19.6670000000     27.6500000000      4.5640000000
     10      F       18.6750000000     26.0350000000      5.6690000000
     11      N       20.8120000000     26.3960000000     10.4270000000
     12      C       21.7870000000     26.5150000000     11.5080000000
     13      C       19.6420000000     25.8190000000     10.8890000000
     14      C       20.9720000000     26.1240000000     12.7540000000
     15      O       18.6300000000     25.5200000000     10.2430000000
     16      O       19.7310000000     25.5910000000     12.2310000000
     17      C       20.6700000000     27.3580000000     13.6410000000
     18      N       19.3820000000     27.5330000000     14.0360000000
     19      O       21.5910000000     28.1440000000     13.9440000000
     20      C       18.9010000000     28.8380000000     14.5160000000
     21      C       18.1660000000     28.6740000000     15.8720000000
     22      C       18.0120000000     29.4780000000     13.4220000000
     23      O       16.9690000000     27.9240000000     15.6540000000
     24      C       17.8080000000     30.0240000000     16.5370000000
     25      C       18.6930000000     29.5720000000     12.0710000000
     26      N       18.9990000000     30.8900000000     16.7310000000
     27      C       17.9780000000     29.2540000000     10.9070000000
     28      C       20.0250000000     29.9970000000     11.9490000000
     29      C       19.9930000000     30.4090000000     17.7470000000
     30      S       18.7100000000     32.5770000000     16.6620000000
     31      C       18.5740000000     29.3700000000      9.6510000000
     32      C       20.6240000000     30.1020000000     10.6930000000
     33      C       21.2420000000     29.7490000000     17.1140000000
     34      C       18.3740000000     32.8090000000     14.9040000000
     35      O       17.4890000000     32.9470000000     17.3980000000
     36      O       19.9650000000     33.2430000000     17.0150000000
     37      C       19.8990000000     29.7970000000      9.5400000000
     38      C       21.9530000000     30.6970000000     16.1450000000
     39      C       22.1870000000     29.2780000000     18.2250000000
     40      C       17.0410000000     32.9410000000     14.4560000000
     41      C       19.4290000000     32.8470000000     13.9800000000
     42      C       16.8100000000     33.0910000000     13.0960000000
     43      C       19.1840000000     32.9990000000     12.6120000000
     44      C       17.8610000000     33.1140000000     12.1460000000
     45      F       15.5370000000     33.2090000000     12.6500000000
     46      O       17.5110000000     33.2470000000     10.8460000000
     47      C       18.5390000000     33.2350000000      9.8580000000
     48      H       21.8460000000     28.1320000000      5.5150000000
     49      H       23.6220000000     28.1550000000      7.2600000000
     50      H       23.1500000000     27.3420000000      9.5340000000
     51      H       19.0890000000     26.4330000000      8.3570000000
     52      H       22.1760000000     27.5420000000     11.5900000000
     53      H       22.6480000000     25.8470000000     11.3440000000
     54      H       21.4600000000     25.3310000000     13.3460000000
     55      H       18.6710000000     26.8840000000     13.6940000000
     56      H       19.7960000000     29.4580000000     14.6770000000
     57      H       18.8280000000     28.0990000000     16.5550000000
     58      H       17.0880000000     28.9010000000     13.3280000000
     59      H       17.7140000000     30.4800000000     13.7540000000
     60      H       16.5060000000     27.8030000000     16.5040000000
     61      H       17.0890000000     30.5630000000     15.9080000000
     62      H       17.3090000000     29.8280000000     17.5010000000
     63      H       16.9480000000     28.9160000000     10.9880000000
     64      H       20.6010000000     30.2410000000     12.8370000000
     65      H       20.3090000000     31.2620000000     18.3590000000
     66      H       19.4890000000     29.6980000000     18.4150000000
     67      H       18.0060000000     29.1240000000      8.7580000000
     68      H       21.6570000000     30.4290000000     10.6160000000
     69      H       20.9220000000     28.8630000000     16.5460000000
     70      H       20.3650000000     29.8880000000      8.5630000000
     71      H       22.2730000000     31.6060000000     16.6490000000
     72      H       22.8270000000     30.2160000000     15.7140000000
     73      H       21.2910000000     30.9790000000     15.3280000000
     74      H       21.6840000000     28.5820000000     18.8930000000
     75      H       23.0550000000     28.7770000000     17.8030000000
     76      H       22.5400000000     30.1190000000     18.8180000000
     77      H       16.2150000000     32.9250000000     15.1600000000
     78      H       20.4530000000     32.7590000000     14.3320000000
     79      H       20.0210000000     33.0230000000     11.9230000000
     80      H       18.0520000000     33.3400000000      8.8870000000
     81      H       19.2370000000     34.0700000000     10.0110000000
     82      H       19.0920000000     32.2870000000      9.8880000000
 $END
