 $FMOPRP MODPAR=8205 NAODIR=210 MAXIT=100
     $END
 $FMO
      SCFTYP(1)=RHF
      MODGRD=10
      MODMUL=0
      MAXCAO=5
      MAXBND=4
      NLAYER=1
      NFRAG=4
      ICHARG(1)=   0, 0, 0, 0
      FRGNAM(1)= Frag1, Frag2, Frag3, Frag4
      INDAT(1)= 0
                    1   -12    46   -53     0
                   13   -18    20   -21    23   -24    27   -28
                   33    54   -58    61   -63    66   -68     0
                   19    22    25   -26    29   -31    34   -35
                   38   -40    43   -45    59   -60    64   -65
                   69    71     0
                   32    36   -37    41   -42    70    72   -73
                    0
 $END
 $FMOBND
         -10      13  DFTB-C
         -17      19  DFTB-C
         -26      32  DFTB-C
 $END
 $DATA
 FMO calculation : umass_1_kb_04_2d_vm2_vchem
 C1 
 C   6
 N   7
 O   8
 S   16
 F   9
 H   1
 $END
 $FMOXYZ
      1      C       21.6540000000     25.1520000000      5.8580000000
      2      C       20.7880000000     24.4100000000      6.6670000000
      3      C       22.6210000000     25.9640000000      6.4530000000
      4      C       20.8770000000     24.4770000000      8.0560000000
      5      C       22.7240000000     26.0450000000      7.8410000000
      6      C       21.8470000000     25.3030000000      8.6560000000
      7      N       21.9420000000     25.4150000000     10.0670000000
      8      C       22.8850000000     26.3230000000     10.7090000000
      9      C       21.1840000000     24.7520000000     11.0080000000
     10      C       22.5400000000     26.1960000000     12.2040000000
     11      O       21.5290000000     25.1630000000     12.2670000000
     12      O       20.3090000000     23.8910000000     10.8300000000
     13      C       21.9770000000     27.5140000000     12.7880000000
     14      O       22.5730000000     28.5900000000     12.5770000000
     15      N       20.8370000000     27.4250000000     13.5230000000
     16      C       20.0140000000     28.6100000000     13.8030000000
     17      C       19.6720000000     28.6710000000     15.3100000000
     18      C       18.7560000000     28.5850000000     12.8940000000
     19      C       18.8930000000     29.9460000000     15.7140000000
     20      O       18.8860000000     27.5240000000     15.6450000000
     21      C       19.1120000000     28.3030000000     11.4490000000
     22      N       19.5270000000     31.1930000000     15.1840000000
     23      C       18.5400000000     27.2100000000     10.7820000000
     24      C       20.0380000000     29.1050000000     10.7630000000
     25      S       18.4520000000     32.5300000000     15.0340000000
     26      C       20.8670000000     31.5230000000     15.7840000000
     27      C       18.8720000000     26.9340000000      9.4550000000
     28      C       20.3750000000     28.8230000000      9.4390000000
     29      O       17.1670000000     32.0020000000     14.5840000000
     30      C       19.2040000000     33.4910000000     13.6840000000
     31      O       18.4880000000     33.3890000000     16.2230000000
     32      C       21.7650000000     32.2250000000     14.8050000000
     33      C       19.7890000000     27.7410000000      8.7790000000
     34      C       19.6150000000     34.8190000000     13.9220000000
     35      C       19.3340000000     32.9600000000     12.3890000000
     36      S       22.2020000000     31.5170000000     13.2580000000
     37      C       22.3510000000     33.4590000000     14.9600000000
     38      C       20.1540000000     35.5620000000     12.8740000000
     39      F       18.9340000000     31.7020000000     12.1690000000
     40      C       19.8790000000     33.6940000000     11.3270000000
     41      C       23.1540000000     32.9180000000     12.8330000000
     42      C       23.1400000000     33.8550000000     13.8330000000
     43      F       20.5600000000     36.8300000000     13.0880000000
     44      C       20.2910000000     35.0040000000     11.5860000000
     45      F       20.8210000000     35.7440000000     10.6040000000
     46      H       21.5760000000     25.0950000000      4.7760000000
     47      H       20.0320000000     23.7740000000      6.2130000000
     48      H       23.3010000000     26.5420000000      5.8350000000
     49      H       20.1950000000     23.9040000000      8.6740000000
     50      H       23.4790000000     26.6870000000      8.2840000000
     51      H       22.7550000000     27.3570000000     10.3540000000
     52      H       23.9270000000     26.0330000000     10.4990000000
     53      H       23.4040000000     25.8590000000     12.8040000000
     54      H       20.3670000000     26.5200000000     13.5840000000
     55      H       20.6340000000     29.4830000000     13.5470000000
     56      H       20.6250000000     28.6230000000     15.8810000000
     57      H       18.0670000000     27.8190000000     13.2600000000
     58      H       18.2410000000     29.5470000000     12.9810000000
     59      H       17.8770000000     29.8900000000     15.3100000000
     60      H       18.8070000000     29.9890000000     16.8120000000
     61      H       18.6920000000     27.5320000000     16.6010000000
     62      H       17.8330000000     26.5730000000     11.3080000000
     63      H       20.5060000000     29.9450000000     11.2700000000
     64      H       20.7420000000     32.1430000000     16.6860000000
     65      H       21.3170000000     30.5750000000     16.1060000000
     66      H       18.4230000000     26.0820000000      8.9510000000
     67      H       21.0980000000     29.4490000000      8.9220000000
     68      H       20.0500000000     27.5240000000      7.7470000000
     69      H       19.5200000000     35.2510000000     14.9140000000
     70      H       22.2140000000     34.0720000000     15.8440000000
     71      H       19.9790000000     33.2580000000     10.3370000000
     72      H       23.6760000000     32.9830000000     11.8860000000
     73      H       23.6690000000     34.7990000000     13.7760000000
 $END
