 $FMOPRP MODPAR=8205 NAODIR=210 MAXIT=100
     $END
 $FMO
      SCFTYP(1)=RHF
      MODGRD=10
      MODMUL=0
      MAXCAO=5
      MAXBND=4
      NLAYER=1
      NFRAG=4
      ICHARG(1)=   0, 0, 0, 0
      FRGNAM(1)= Frag1, Frag2, Frag3, Frag4
      INDAT(1)= 0
                    1   -13    45   -51     0
                   14   -20    22   -24    26   -27    30    52
                  -56    59   -63    66     0
                   21    25    28   -29    32   -34    37   -44
                   57   -58    64   -65    74   -79     0
                   31    35   -36    67   -73     0
 $END
 $FMOBND
         -13      14  DFTB-C
         -19      21  DFTB-C
         -28      31  DFTB-C
 $END
 $DATA
 FMO calculation : umass_1_ad_67_2d_vm2_vchem
 C1 
 C   6
 N   7
 O   8
 S   16
 F   9
 H   1
 $END
 $FMOXYZ
      1      C       19.1180000000     24.5480000000      5.3220000000
      2      C       20.1510000000     24.0480000000      6.1210000000
      3      C       18.6590000000     25.8410000000      5.5870000000
      4      C       20.7010000000     24.8080000000      7.1520000000
      5      C       19.1820000000     26.6360000000      6.6090000000
      6      F       17.6650000000     26.3480000000      4.8300000000
      7      C       20.2160000000     26.1090000000      7.4110000000
      8      N       20.7370000000     26.8860000000      8.4690000000
      9      C       21.7220000000     26.5210000000      9.3670000000
     10      C       20.2300000000     28.2200000000      8.7720000000
     11      O       21.9060000000     27.5110000000     10.2920000000
     12      O       22.3900000000     25.4790000000      9.3950000000
     13      C       20.9830000000     28.6010000000     10.0610000000
     14      C       20.0290000000     28.7460000000     11.2680000000
     15      N       20.3850000000     28.1160000000     12.4210000000
     16      O       18.9870000000     29.4250000000     11.1590000000
     17      C       19.3990000000     27.8790000000     13.4880000000
     18      C       19.0450000000     26.3690000000     13.5330000000
     19      C       19.9300000000     28.3930000000     14.8580000000
     20      C       18.6890000000     25.8470000000     12.1580000000
     21      C       20.1720000000     29.9170000000     14.8010000000
     22      O       18.9800000000     28.0660000000     15.8790000000
     23      C       17.5720000000     26.3460000000     11.4710000000
     24      C       19.4990000000     24.8910000000     11.5280000000
     25      N       20.7230000000     30.4560000000     16.0780000000
     26      C       17.2680000000     25.8910000000     10.1880000000
     27      C       19.1910000000     24.4330000000     10.2460000000
     28      C       22.1480000000     30.8810000000     16.0310000000
     29      S       19.6620000000     31.3460000000     17.0550000000
     30      C       18.0740000000     24.9310000000      9.5730000000
     31      C       23.1000000000     29.6730000000     15.8900000000
     32      C       19.3820000000     32.9240000000     16.2230000000
     33      O       18.3930000000     30.5940000000     17.0420000000
     34      O       20.3350000000     31.5950000000     18.3280000000
     35      C       24.5430000000     30.1600000000     15.7280000000
     36      C       22.9620000000     28.7190000000     17.0810000000
     37      C       20.2220000000     34.0150000000     16.4890000000
     38      C       18.3630000000     33.0360000000     15.2510000000
     39      C       20.0590000000     35.2290000000     15.8140000000
     40      C       18.2140000000     34.2430000000     14.5850000000
     41      C       19.0480000000     35.3590000000     14.8430000000
     42      F       17.2430000000     34.3690000000     13.6520000000
     43      O       18.8050000000     36.4850000000     14.1310000000
     44      C       19.6210000000     37.6300000000     14.3670000000
     45      H       18.6850000000     23.9590000000      4.5210000000
     46      H       20.5300000000     23.0460000000      5.9410000000
     47      H       21.4950000000     24.3980000000      7.7640000000
     48      H       18.7840000000     27.6310000000      6.7730000000
     49      H       19.1410000000     28.2130000000      8.9320000000
     50      H       20.4360000000     28.9210000000      7.9480000000
     51      H       21.5760000000     29.5250000000      9.9390000000
     52      H       21.2050000000     27.5050000000     12.4000000000
     53      H       18.5020000000     28.4540000000     13.2110000000
     54      H       19.8960000000     25.8100000000     13.9330000000
     55      H       18.2140000000     26.2340000000     14.2320000000
     56      H       20.8800000000     27.8710000000     15.0950000000
     57      H       20.8730000000     30.1520000000     13.9910000000
     58      H       19.2260000000     30.4240000000     14.5630000000
     59      H       18.6050000000     28.8790000000     16.2720000000
     60      H       16.9420000000     27.0960000000     11.9430000000
     61      H       20.3740000000     24.5050000000     12.0460000000
     62      H       16.4010000000     26.2860000000      9.6660000000
     63      H       19.8270000000     23.6930000000      9.7690000000
     64      H       22.3050000000     31.5810000000     15.1920000000
     65      H       22.3700000000     31.4210000000     16.9570000000
     66      H       17.8350000000     24.5740000000      8.5750000000
     67      H       22.8210000000     29.1250000000     14.9760000000
     68      H       24.6360000000     30.8120000000     14.8620000000
     69      H       24.8670000000     30.7150000000     16.6060000000
     70      H       25.2190000000     29.3180000000     15.5940000000
     71      H       21.9340000000     28.3780000000     17.1850000000
     72      H       23.5990000000     27.8470000000     16.9510000000
     73      H       23.2480000000     29.2130000000     18.0080000000
     74      H       21.0020000000     33.9190000000     17.2390000000
     75      H       17.6990000000     32.2030000000     15.0390000000
     76      H       20.7180000000     36.0580000000     16.0470000000
     77      H       19.2740000000     38.4160000000     13.6930000000
     78      H       19.5230000000     37.9680000000     15.4060000000
     79      H       20.6750000000     37.4070000000     14.1560000000
 $END
