 $FMOPRP MODPAR=8205 NAODIR=210 MAXIT=100
     $END
 $FMO
      SCFTYP(1)=RHF
      MODGRD=10
      MODMUL=0
      MAXCAO=5
      MAXBND=4
      NLAYER=1
      NFRAG=4
      ICHARG(1)=   0, 0, 0, 0
      FRGNAM(1)= Frag1, Frag2, Frag3, Frag4
      INDAT(1)= 0
                    1   -15    47   -56     0
                   16   -21    23   -24    26   -27    30   -31
                   36    57   -61    64   -66    69   -70    72
                    0
                   22    25    28   -29    33   -35    39   -46
                   62   -63    67   -68    79   -83     0
                   32    37   -38    71    73   -78     0
 $END
 $FMOBND
         -13      16  DFTB-C
         -20      22  DFTB-C
         -28      32  DFTB-C
 $END
 $DATA
 FMO calculation : umass_1_kb_62_2d_vm2_vchem
 C1 
 C   6
 N   7
 O   8
 S   16
 H   1
 $END
 $FMOXYZ
      1      C       18.5360000000     25.8530000000      6.8320000000
      2      C       18.5290000000     24.9780000000      7.9190000000
      3      C       19.4060000000     26.9570000000      6.8300000000
      4      C       19.3720000000     25.1820000000      9.0100000000
      5      C       20.2580000000     27.1670000000      7.9270000000
      6      C       19.4620000000     27.9300000000      5.6920000000
      7      C       20.2440000000     26.2890000000      9.0240000000
      8      C       18.5770000000     27.7040000000      4.4790000000
      9      O       20.2170000000     28.9020000000      5.7420000000
     10      N       21.0880000000     26.5430000000     10.1310000000
     11      C       21.9400000000     27.7260000000     10.2050000000
     12      C       21.2330000000     25.7670000000     11.2640000000
     13      C       22.4810000000     27.6760000000     11.6450000000
     14      O       22.0900000000     26.3720000000     12.1410000000
     15      O       20.7110000000     24.6730000000     11.5190000000
     16      C       21.8350000000     28.7750000000     12.5270000000
     17      N       21.3870000000     28.3970000000     13.7550000000
     18      O       21.7290000000     29.9380000000     12.0890000000
     19      C       20.3670000000     29.1850000000     14.4660000000
     20      C       20.7950000000     29.4510000000     15.9320000000
     21      C       19.0140000000     28.4400000000     14.3690000000
     22      C       19.8900000000     30.4890000000     16.6410000000
     23      O       20.7520000000     28.2170000000     16.6550000000
     24      C       18.5610000000     28.1770000000     12.9470000000
     25      N       19.8640000000     31.7950000000     15.9380000000
     26      C       18.6890000000     29.1480000000     11.9420000000
     27      C       17.9650000000     26.9490000000     12.6240000000
     28      C       21.1430000000     32.5700000000     15.9440000000
     29      S       18.3900000000     32.6660000000     15.9880000000
     30      C       18.2310000000     28.8960000000     10.6480000000
     31      C       17.4970000000     26.7020000000     11.3330000000
     32      C       21.9350000000     32.4700000000     14.6170000000
     33      O       17.6710000000     32.3680000000     17.2390000000
     34      C       17.4440000000     31.9450000000     14.6300000000
     35      O       18.6910000000     34.0630000000     15.6630000000
     36      C       17.6280000000     27.6760000000     10.3410000000
     37      C       21.0910000000     32.9110000000     13.4180000000
     38      C       23.2180000000     33.3000000000     14.7290000000
     39      C       17.5470000000     32.5020000000     13.3470000000
     40      C       16.6150000000     30.8170000000     14.8840000000
     41      C       16.8490000000     31.9610000000     12.2510000000
     42      C       15.9460000000     30.2910000000     13.7910000000
     43      C       16.0630000000     30.8420000000     12.5040000000
     44      O       15.1140000000     29.2070000000     13.7430000000
     45      O       15.3070000000     30.1200000000     11.6330000000
     46      C       14.7160000000     29.0450000000     12.3750000000
     47      H       17.8670000000     25.6790000000      5.9940000000
     48      H       17.8530000000     24.1280000000      7.9210000000
     49      H       19.3480000000     24.5000000000      9.8530000000
     50      H       20.9190000000     28.0280000000      7.9030000000
     51      H       18.7830000000     26.7340000000      4.0270000000
     52      H       17.5260000000     27.7150000000      4.7640000000
     53      H       18.7450000000     28.4770000000      3.7360000000
     54      H       21.3690000000     28.6500000000     10.0290000000
     55      H       22.7450000000     27.6850000000      9.4530000000
     56      H       23.5820000000     27.7390000000     11.6880000000
     57      H       21.4410000000     27.4060000000     13.9990000000
     58      H       20.3020000000     30.1520000000     13.9450000000
     59      H       21.8420000000     29.8240000000     15.9280000000
     60      H       19.0900000000     27.4930000000     14.9110000000
     61      H       18.2500000000     29.0290000000     14.8920000000
     62      H       18.8650000000     30.1060000000     16.6990000000
     63      H       20.2450000000     30.6180000000     17.6790000000
     64      H       21.0480000000     28.3710000000     17.5720000000
     65      H       19.1530000000     30.1050000000     12.1650000000
     66      H       17.8660000000     26.1850000000     13.3910000000
     67      H       20.9150000000     33.6220000000     16.1470000000
     68      H       21.7610000000     32.2050000000     16.7760000000
     69      H       18.3420000000     29.6570000000      9.8810000000
     70      H       17.0360000000     25.7460000000     11.1000000000
     71      H       22.2230000000     31.4210000000     14.4560000000
     72      H       17.2660000000     27.4830000000      9.3350000000
     73      H       21.6810000000     32.8770000000     12.5050000000
     74      H       20.2370000000     32.2490000000     13.2860000000
     75      H       20.7200000000     33.9250000000     13.5480000000
     76      H       23.8130000000     33.2120000000     13.8230000000
     77      H       22.9880000000     34.3520000000     14.8800000000
     78      H       23.8240000000     32.9640000000     15.5670000000
     79      H       18.1700000000     33.3790000000     13.2010000000
     80      H       16.5160000000     30.4080000000     15.8850000000
     81      H       16.9360000000     32.3950000000     11.2610000000
     82      H       15.0800000000     28.0700000000     11.9850000000
     83      H       13.6110000000     29.0850000000     12.2900000000
 $END
