 $FMOPRP MODPAR=8205 NAODIR=210 MAXIT=100
     $END
 $FMO
      SCFTYP(1)=RHF
      MODGRD=10
      MODMUL=0
      MAXCAO=5
      MAXBND=4
      NLAYER=1
      NFRAG=4
      ICHARG(1)=   0, 0, 0, 0
      FRGNAM(1)= Frag1, Frag2, Frag3, Frag4
      INDAT(1)= 0
                    1   -14    45   -54     0
                   15   -22    24   -25    27   -28    31    55
                  -60    63   -66    69     0
                   23    26    29   -30    32   -34    36   -37
                   40   -44    61   -62    67   -68    71   -72
                   79   -83     0
                   35    38   -39    70    73   -78     0
 $END
 $FMOBND
         -14      15  DFTB-C
         -20      23  DFTB-C
         -30      35  DFTB-C
 $END
 $DATA
 FMO calculation : umass_1_ad_17_2d_vm2_vchem
 C1 
 C   6
 N   7
 O   8
 S   16
 H   1
 $END
 $FMOXYZ
      1      C       22.8200000000     25.2140000000      6.7100000000
      2      C       22.2420000000     26.4680000000      6.5040000000
      3      C       23.1090000000     24.8100000000      8.0300000000
      4      C       21.9420000000     27.3170000000      7.5680000000
      5      O       23.6670000000     23.6080000000      8.3370000000
      6      C       22.8180000000     25.6550000000      9.1170000000
      7      C       22.2250000000     26.9070000000      8.8890000000
      8      C       23.9620000000     22.6990000000      7.2830000000
      9      N       21.8870000000     27.7620000000      9.9680000000
     10      C       22.0520000000     27.5090000000     11.3130000000
     11      C       21.2180000000     29.0400000000      9.7600000000
     12      O       22.5960000000     26.5360000000     11.8580000000
     13      O       21.5200000000     28.5310000000     12.0540000000
     14      C       20.9070000000     29.5160000000     11.1900000000
     15      C       19.3890000000     29.5790000000     11.4660000000
     16      N       18.9540000000     29.0290000000     12.6300000000
     17      O       18.6270000000     30.1290000000     10.6420000000
     18      C       17.5270000000     28.7780000000     12.8800000000
     19      C       17.2480000000     27.2520000000     12.7430000000
     20      C       17.1190000000     29.3100000000     14.2790000000
     21      C       17.8880000000     26.6940000000     11.4900000000
     22      O       15.8040000000     28.8260000000     14.5730000000
     23      C       17.0900000000     30.8620000000     14.3530000000
     24      C       17.4350000000     27.0840000000     10.2210000000
     25      C       18.9870000000     25.8270000000     11.5790000000
     26      N       18.3290000000     31.5060000000     13.8550000000
     27      C       18.0680000000     26.6190000000      9.0690000000
     28      C       19.6150000000     25.3550000000     10.4240000000
     29      S       19.7190000000     31.5040000000     14.8120000000
     30      C       18.1930000000     32.5050000000     12.7620000000
     31      C       19.1590000000     25.7520000000      9.1660000000
     32      C       19.4540000000     32.7080000000     16.1300000000
     33      O       19.8110000000     30.1740000000     15.4310000000
     34      O       20.8210000000     31.9690000000     13.9630000000
     35      C       17.9410000000     33.9630000000     13.2250000000
     36      C       20.0110000000     33.9980000000     16.0400000000
     37      C       18.6450000000     32.3790000000     17.2310000000
     38      C       16.7410000000     34.0900000000     14.1700000000
     39      C       17.7740000000     34.8640000000     11.9960000000
     40      C       19.7520000000     34.9440000000     17.0230000000
     41      C       18.3740000000     33.3190000000     18.2220000000
     42      C       18.9210000000     34.6160000000     18.1160000000
     43      O       18.7010000000     35.5930000000     19.0240000000
     44      C       17.8630000000     35.3250000000     20.1440000000
     45      H       23.0380000000     24.5760000000      5.8610000000
     46      H       22.0160000000     26.7890000000      5.4910000000
     47      H       21.4880000000     28.2820000000      7.3720000000
     48      H       23.0410000000     25.3260000000     10.1260000000
     49      H       23.0540000000     22.4380000000      6.7220000000
     50      H       24.7020000000     23.1240000000      6.5900000000
     51      H       24.3740000000     21.7960000000      7.7390000000
     52      H       20.2950000000     28.9200000000      9.1710000000
     53      H       21.8650000000     29.7460000000      9.2160000000
     54      H       21.3670000000     30.4950000000     11.4140000000
     55      H       19.6290000000     28.5320000000     13.2150000000
     56      H       16.9770000000     29.3200000000     12.0950000000
     57      H       17.6410000000     26.7340000000     13.6230000000
     58      H       16.1650000000     27.0990000000     12.7320000000
     59      H       17.8250000000     28.9070000000     15.0360000000
     60      H       15.5490000000     29.1160000000     15.4670000000
     61      H       16.2610000000     31.2270000000     13.7370000000
     62      H       16.8760000000     31.1700000000     15.3910000000
     63      H       16.5910000000     27.7640000000     10.1390000000
     64      H       19.3540000000     25.5250000000     12.5560000000
     65      H       17.7140000000     26.9370000000      8.0910000000
     66      H       20.4670000000     24.6870000000     10.5070000000
     67      H       19.1100000000     32.4780000000     12.1590000000
     68      H       17.3750000000     32.1650000000     12.1170000000
     69      H       19.6540000000     25.3930000000      8.2690000000
     70      H       18.8360000000     34.3010000000     13.7710000000
     71      H       20.6540000000     34.2470000000     15.1990000000
     72      H       18.2340000000     31.3750000000     17.3160000000
     73      H       16.9040000000     33.5290000000     15.0870000000
     74      H       16.5830000000     35.1310000000     14.4400000000
     75      H       15.8310000000     33.7220000000     13.7010000000
     76      H       18.6440000000     34.7960000000     11.3470000000
     77      H       16.8990000000     34.5740000000     11.4190000000
     78      H       17.6520000000     35.9020000000     12.2940000000
     79      H       20.1840000000     35.9380000000     16.9560000000
     80      H       17.7460000000     33.0390000000     19.0610000000
     81      H       17.8060000000     36.2440000000     20.7310000000
     82      H       16.8550000000     35.0380000000     19.8180000000
     83      H       18.2850000000     34.5240000000     20.7650000000
 $END
