 $FMOPRP MODPAR=8205 NAODIR=210 MAXIT=100
     $END
 $FMO
      SCFTYP(1)=RHF
      MODGRD=10
      MODMUL=0
      MAXCAO=5
      MAXBND=4
      NLAYER=1
      NFRAG=4
      ICHARG(1)=   0, 0, 0, 0
      FRGNAM(1)= Frag1, Frag2, Frag3, Frag4
      INDAT(1)= 0
                    1   -12    45   -52     0
                   13   -18    20   -21    23   -24    27   -28
                   33    53   -57    60   -62    65   -67     0
                   19    22    25   -26    29   -31    34   -35
                   38   -39    42   -44    58   -59    63   -64
                   68   -69    71    74   -77     0
                   32    36   -37    40   -41    70    72   -73
                    0
 $END
 $FMOBND
         -12      13  DFTB-C
         -17      19  DFTB-C
         -26      32  DFTB-C
 $END
 $DATA
 FMO calculation : umass_1_kb_03_2d_vm2_vchem
 C1 
 C   6
 N   7
 O   8
 S   16
 H   1
 $END
 $FMOXYZ
      1      C       18.2250000000     27.1850000000      6.4160000000
      2      C       18.7370000000     28.4630000000      6.6480000000
      3      C       18.6270000000     26.1250000000      7.2320000000
      4      C       19.6390000000     28.6880000000      7.6870000000
      5      C       19.5260000000     26.3310000000      8.2780000000
      6      C       20.0360000000     27.6210000000      8.5170000000
      7      N       20.9300000000     27.8680000000      9.5910000000
      8      C       21.4230000000     26.9470000000     10.4910000000
      9      C       21.4360000000     29.2030000000      9.8890000000
     10      O       22.2070000000     27.5730000000     11.4230000000
     11      O       21.2460000000     25.7200000000     10.5210000000
     12      C       22.1950000000     29.0050000000     11.2140000000
     13      C       21.4700000000     29.6950000000     12.3960000000
     14      N       21.2750000000     28.9480000000     13.5160000000
     15      O       21.0800000000     30.8750000000     12.2800000000
     16      C       20.3000000000     29.3330000000     14.5470000000
     17      C       20.9710000000     29.2850000000     15.9460000000
     18      C       19.0610000000     28.4030000000     14.4520000000
     19      C       20.1010000000     29.9000000000     17.0700000000
     20      O       21.2570000000     27.9180000000     16.2600000000
     21      C       18.5230000000     28.2420000000     13.0440000000
     22      N       20.0020000000     31.3770000000     16.9610000000
     23      C       18.1220000000     26.9760000000     12.5920000000
     24      C       18.3970000000     29.3380000000     12.1750000000
     25      S       18.4800000000     32.0840000000     17.2800000000
     26      C       21.2380000000     32.1350000000     17.3160000000
     27      C       17.6020000000     26.8080000000     11.3090000000
     28      C       17.8790000000     29.1680000000     10.8900000000
     29      O       17.7660000000     31.3340000000     18.3250000000
     30      O       18.7010000000     33.5200000000     17.4690000000
     31      C       17.6160000000     31.8150000000     15.7150000000
     32      C       22.1180000000     32.3900000000     16.1220000000
     33      C       17.4750000000     27.9050000000     10.4540000000
     34      C       16.7510000000     30.7240000000     15.5780000000
     35      C       17.8320000000     32.6980000000     14.6440000000
     36      C       23.4910000000     32.4550000000     16.0950000000
     37      S       21.4450000000     32.7080000000     14.5350000000
     38      C       16.0990000000     30.5040000000     14.3480000000
     39      C       17.1630000000     32.4830000000     13.4370000000
     40      C       24.0120000000     32.7570000000     14.7970000000
     41      C       23.0350000000     32.9200000000     13.8510000000
     42      O       15.3020000000     29.4110000000     14.2730000000
     43      C       16.3010000000     31.3980000000     13.2760000000
     44      C       14.7050000000     29.0800000000     13.0220000000
     45      H       17.5210000000     27.0160000000      5.6060000000
     46      H       18.4320000000     29.2950000000      6.0180000000
     47      H       18.2350000000     25.1270000000      7.0570000000
     48      H       20.0240000000     29.6880000000      7.8550000000
     49      H       19.8230000000     25.5030000000      8.9130000000
     50      H       22.0910000000     29.5720000000      9.0830000000
     51      H       20.6170000000     29.9310000000     10.0050000000
     52      H       23.2430000000     29.3480000000     11.1560000000
     53      H       21.5540000000     27.9650000000     13.5000000000
     54      H       20.0080000000     30.3730000000     14.3270000000
     55      H       21.9300000000     29.8450000000     15.8900000000
     56      H       19.3250000000     27.4210000000     14.8550000000
     57      H       18.2730000000     28.8030000000     15.1030000000
     58      H       19.0890000000     29.4790000000     17.0410000000
     59      H       20.5370000000     29.6260000000     18.0450000000
     60      H       21.7270000000     27.8770000000     17.1130000000
     61      H       18.2230000000     26.1180000000     13.2530000000
     62      H       18.7140000000     30.3250000000     12.4970000000
     63      H       20.9340000000     33.0870000000     17.7730000000
     64      H       21.7950000000     31.5760000000     18.0840000000
     65      H       17.2990000000     25.8200000000     10.9730000000
     66      H       17.7910000000     30.0250000000     10.2280000000
     67      H       17.0730000000     27.7760000000      9.4530000000
     68      H       16.5790000000     30.0500000000     16.4130000000
     69      H       18.5020000000     33.5440000000     14.7640000000
     70      H       24.1120000000     32.2850000000     16.9680000000
     71      H       17.3220000000     33.1660000000     12.6080000000
     72      H       25.0730000000     32.8400000000     14.5830000000
     73      H       23.1720000000     33.1380000000     12.8000000000
     74      H       15.8010000000     31.2510000000     12.3240000000
     75      H       13.9970000000     29.8580000000     12.7080000000
     76      H       15.4730000000     28.9530000000     12.2490000000
     77      H       14.1690000000     28.1380000000     13.1600000000
 $END
