 $FMOPRP MODPAR=8205 NAODIR=210 MAXIT=100
     $END
 $FMO
      SCFTYP(1)=RHF
      MODGRD=10
      MODMUL=0
      MAXCAO=5
      MAXBND=4
      NLAYER=1
      NFRAG=4
      ICHARG(1)=   0, 0, 0, 0
      FRGNAM(1)= Frag1, Frag2, Frag3, Frag4
      INDAT(1)= 0
                    1   -14    46   -51     0
                   15   -20    22   -23    25   -26    29   -30
                   35    52   -56    59   -61    64   -65    67
                    0
                   21    24    27   -28    31   -33    36   -37
                   40   -45    57   -58    62   -63    68   -69
                   76   -79     0
                   34    38   -39    66    70   -75     0
 $END
 $FMOBND
         -12      15  DFTB-C
         -19      21  DFTB-C
         -28      34  DFTB-C
 $END
 $DATA
 FMO calculation : umass_1_ad_71_2d_vm2_vchem
 C1 
 C   6
 N   7
 O   8
 S   16
 F   9
 H   1
 $END
 $FMOXYZ
      1      C       23.7770000000     24.4020000000      7.7560000000
      2      C       23.0970000000     23.7310000000      8.7730000000
      3      F       24.3760000000     23.7040000000      6.7590000000
      4      C       23.8440000000     25.8020000000      7.7600000000
      5      C       22.4840000000     24.4640000000      9.7930000000
      6      F       24.5070000000     26.4400000000      6.7710000000
      7      C       23.2350000000     26.5490000000      8.7680000000
      8      C       22.5440000000     25.8730000000      9.7990000000
      9      N       21.9100000000     26.6250000000     10.8140000000
     10      C       21.8940000000     28.0830000000     10.8040000000
     11      C       21.2190000000     26.1360000000     11.9060000000
     12      C       21.0000000000     28.4360000000     12.0040000000
     13      O       20.6980000000     27.1660000000     12.6330000000
     14      O       21.0620000000     24.9540000000     12.2470000000
     15      C       19.6880000000     29.1290000000     11.5750000000
     16      N       18.5560000000     28.7680000000     12.2400000000
     17      O       19.7070000000     29.9920000000     10.6740000000
     18      C       17.2200000000     29.1060000000     11.7190000000
     19      C       16.3000000000     29.5860000000     12.8730000000
     20      C       16.6260000000     27.8630000000     10.9940000000
     21      C       16.5930000000     31.0450000000     13.3310000000
     22      O       14.9420000000     29.5290000000     12.4240000000
     23      C       17.6370000000     27.2240000000     10.0660000000
     24      N       18.0310000000     31.3460000000     13.5160000000
     25      C       18.1260000000     27.9190000000      8.9500000000
     26      C       18.1370000000     25.9420000000     10.3360000000
     27      S       18.8820000000     30.7070000000     14.8120000000
     28      C       18.6850000000     32.3190000000     12.6030000000
     29      C       19.0880000000     27.3420000000      8.1210000000
     30      C       19.0940000000     25.3610000000      9.5020000000
     31      O       18.0590000000     29.6350000000     15.3810000000
     32      O       20.2480000000     30.3990000000     14.3640000000
     33      C       19.0160000000     32.0360000000     16.0310000000
     34      C       18.0000000000     33.7070000000     12.5430000000
     35      C       19.5730000000     26.0610000000      8.3930000000
     36      C       17.9180000000     32.3420000000     16.8660000000
     37      C       20.1910000000     32.7950000000     16.1130000000
     38      C       17.8270000000     34.3440000000     13.9250000000
     39      C       18.8000000000     34.6220000000     11.6100000000
     40      C       18.0400000000     33.3980000000     17.7580000000
     41      C       20.3020000000     33.8570000000     17.0160000000
     42      F       16.9980000000     33.7050000000     18.5670000000
     43      C       19.2190000000     34.1770000000     17.8540000000
     44      O       19.2190000000     35.1870000000     18.7590000000
     45      C       20.3930000000     35.9850000000     18.8870000000
     46      H       23.0450000000     22.6480000000      8.7690000000
     47      H       21.9520000000     23.9460000000     10.5820000000
     48      H       23.3030000000     27.6310000000      8.7420000000
     49      H       21.4740000000     28.4780000000      9.8650000000
     50      H       22.9110000000     28.4940000000     10.9080000000
     51      H       21.5210000000     29.0630000000     12.7490000000
     52      H       18.6120000000     27.9750000000     12.8810000000
     53      H       17.3680000000     29.9150000000     10.9870000000
     54      H       16.4200000000     28.8900000000     13.7310000000
     55      H       16.3000000000     27.1340000000     11.7410000000
     56      H       15.7370000000     28.1790000000     10.4420000000
     57      H       16.2100000000     31.7330000000     12.5720000000
     58      H       16.0380000000     31.2500000000     14.2600000000
     59      H       14.3540000000     29.8190000000     13.1450000000
     60      H       17.7580000000     28.9200000000      8.7370000000
     61      H       17.7730000000     25.3970000000     11.2040000000
     62      H       19.7220000000     32.4300000000     12.9350000000
     63      H       18.7180000000     31.8920000000     11.5890000000
     64      H       19.4630000000     27.8930000000      7.2630000000
     65      H       19.4720000000     24.3670000000      9.7220000000
     66      H       16.9990000000     33.5760000000     12.1050000000
     67      H       20.3190000000     25.6100000000      7.7440000000
     68      H       17.0010000000     31.7630000000     16.8180000000
     69      H       21.0290000000     32.5500000000     15.4670000000
     70      H       17.2020000000     33.7250000000     14.5650000000
     71      H       18.7880000000     34.4800000000     14.4180000000
     72      H       17.3560000000     35.3200000000     13.8360000000
     73      H       18.8990000000     34.1750000000     10.6230000000
     74      H       18.3080000000     35.5850000000     11.5000000000
     75      H       19.8000000000     34.7980000000     12.0020000000
     76      H       21.2250000000     34.4240000000     17.0570000000
     77      H       20.6250000000     36.4910000000     17.9410000000
     78      H       21.2500000000     35.3680000000     19.1870000000
     79      H       20.1930000000     36.7300000000     19.6590000000
 $END
