 $FMOPRP MODPAR=8205 NAODIR=210 MAXIT=100
     $END
 $FMO
      SCFTYP(1)=RHF
      MODGRD=10
      MODMUL=0
      MAXCAO=5
      MAXBND=4
      NLAYER=1
      NFRAG=4
      ICHARG(1)=   0, 0, 0, 0
      FRGNAM(1)= Frag1, Frag2, Frag3, Frag4
      INDAT(1)= 0
                    1   -15    46   -55     0
                   16   -22    24    26   -27    30   -31    36
                   56   -61    64   -65    68   -69    71     0
                   23    25    28   -29    32   -34    37   -38
                   41   -45    62   -63    66   -67    72   -73
                   80   -84     0
                   35    39   -40    70    74   -79     0
 $END
 $FMOBND
         -13      16  DFTB-C
         -20      23  DFTB-C
         -29      35  DFTB-C
 $END
 $DATA
 FMO calculation : umass_1_ad_81_2d_vm2_vchem
 C1 
 C   6
 N   7
 O   8
 S   16
 H   1
 $END
 $FMOXYZ
      1      C       18.2280000000     32.6790000000      9.1020000000
      2      C       19.6060000000     32.3940000000      9.0940000000
      3      C       17.3100000000     31.6620000000      9.3650000000
      4      C       20.0400000000     31.0840000000      9.3570000000
      5      C       20.6380000000     33.4510000000      8.8460000000
      6      C       17.7360000000     30.3610000000      9.6260000000
      7      C       19.1140000000     30.0630000000      9.6280000000
      8      O       21.8340000000     33.1560000000      8.8050000000
      9      C       20.1920000000     34.8900000000      8.6690000000
     10      N       19.5790000000     28.7630000000      9.9330000000
     11      C       20.9640000000     28.5080000000     10.3070000000
     12      C       18.8080000000     27.6320000000     10.1110000000
     13      C       20.9270000000     27.0580000000     10.8390000000
     14      O       19.5710000000     26.6150000000     10.6140000000
     15      O       17.6140000000     27.4660000000      9.8230000000
     16      C       21.2870000000     26.9660000000     12.3410000000
     17      N       20.2790000000     26.6660000000     13.1930000000
     18      O       22.4620000000     27.2020000000     12.7090000000
     19      C       20.3970000000     26.5780000000     14.6550000000
     20      C       21.1440000000     27.7970000000     15.2710000000
     21      C       21.0830000000     25.2430000000     15.0660000000
     22      O       21.0920000000     27.6930000000     16.6990000000
     23      C       20.6080000000     29.1750000000     14.7860000000
     24      C       20.3240000000     24.0530000000     14.5270000000
     25      N       19.1480000000     29.3660000000     14.9880000000
     26      C       20.7900000000     23.3640000000     13.3980000000
     27      C       19.1130000000     23.6550000000     15.1150000000
     28      S       18.1510000000     29.6390000000     13.6540000000
     29      C       18.6990000000     29.8320000000     16.3300000000
     30      C       20.0640000000     22.2950000000     12.8710000000
     31      C       18.3890000000     22.5870000000     14.5870000000
     32      C       18.3590000000     31.3480000000     13.1010000000
     33      O       18.6610000000     28.7680000000     12.5810000000
     34      O       16.7670000000     29.4700000000     14.1050000000
     35      C       18.4900000000     31.3620000000     16.4700000000
     36      C       18.8610000000     21.9050000000     13.4630000000
     37      C       19.6060000000     31.7970000000     12.6250000000
     38      C       17.2700000000     32.2320000000     13.1280000000
     39      C       17.9350000000     31.6690000000     17.8650000000
     40      C       19.7710000000     32.1590000000     16.2050000000
     41      C       19.7610000000     33.1080000000     12.1950000000
     42      C       17.4060000000     33.5450000000     12.6820000000
     43      C       18.6580000000     33.9890000000     12.2100000000
     44      O       18.8800000000     35.2420000000     11.7480000000
     45      C       17.7980000000     36.1690000000     11.7090000000
     46      H       17.8760000000     33.6890000000      8.9100000000
     47      H       16.2480000000     31.8880000000      9.3790000000
     48      H       21.1080000000     30.8870000000      9.3570000000
     49      H       17.0140000000     29.5830000000      9.8470000000
     50      H       21.0450000000     35.5350000000      8.4750000000
     51      H       19.4880000000     34.9810000000      7.8420000000
     52      H       19.6880000000     35.2430000000      9.5710000000
     53      H       21.3040000000     29.2210000000     11.0750000000
     54      H       21.6430000000     28.6100000000      9.4450000000
     55      H       21.5980000000     26.3960000000     10.2650000000
     56      H       19.3580000000     26.4900000000     12.7900000000
     57      H       19.3640000000     26.5760000000     15.0420000000
     58      H       22.2110000000     27.7510000000     14.9950000000
     59      H       22.1070000000     25.2440000000     14.6840000000
     60      H       21.1370000000     25.2090000000     16.1580000000
     61      H       20.1900000000     27.4590000000     16.9840000000
     62      H       21.1620000000     29.9680000000     15.3050000000
     63      H       20.8280000000     29.2730000000     13.7170000000
     64      H       21.7260000000     23.6670000000     12.9340000000
     65      H       18.7400000000     24.1870000000     15.9870000000
     66      H       17.7550000000     29.3220000000     16.5710000000
     67      H       19.4450000000     29.4920000000     17.0550000000
     68      H       20.4360000000     21.7680000000     11.9960000000
     69      H       17.4510000000     22.2880000000     15.0500000000
     70      H       17.7340000000     31.6710000000     15.7320000000
     71      H       18.2940000000     21.0750000000     13.0500000000
     72      H       20.4510000000     31.1150000000     12.5870000000
     73      H       16.3080000000     31.8830000000     13.4940000000
     74      H       17.7290000000     32.7310000000     17.9710000000
     75      H       17.0110000000     31.1220000000     18.0410000000
     76      H       18.6480000000     31.3850000000     18.6370000000
     77      H       20.1190000000     32.0160000000     15.1840000000
     78      H       19.5910000000     33.2220000000     16.3480000000
     79      H       20.5670000000     31.8570000000     16.8820000000
     80      H       20.7220000000     33.4550000000     11.8280000000
     81      H       16.5460000000     34.2050000000     12.7010000000
     82      H       17.4020000000     36.3470000000     12.7170000000
     83      H       18.1870000000     37.1040000000     11.3020000000
     84      H       16.9930000000     35.7980000000     11.0620000000
 $END
