 $FMOPRP MODPAR=8205 NAODIR=210 MAXIT=100
     $END
 $FMO
      SCFTYP(1)=RHF
      MODGRD=10
      MODMUL=0
      MAXCAO=5
      MAXBND=4
      NLAYER=1
      NFRAG=4
      ICHARG(1)=   0, 0, 0, 0
      FRGNAM(1)= Frag1, Frag2, Frag3, Frag4
      INDAT(1)= 0
                    1   -16    50   -56     0
                   17   -23    25   -27    29   -30    33    57
                  -61    64   -68    71     0
                   24    28    31   -32    34   -36    38   -39
                   42   -49    62   -63    69   -70    73   -74
                   81   -82     0
                   37    40   -41    72    75   -80     0
 $END
 $FMOBND
         -16      17  DFTB-C
         -22      24  DFTB-C
         -32      37  DFTB-C
 $END
 $DATA
 FMO calculation : umass_1_kb_67_2d_vm2_vchem
 C1 
 C   6
 N   7
 O   8
 S   16
 F   9
 H   1
 $END
 $FMOXYZ
      1      C       18.1010000000     25.3660000000      8.0040000000
      2      C       18.8730000000     26.4520000000      7.5670000000
      3      C       18.3570000000     24.8060000000      9.2580000000
      4      C       19.8880000000     26.9770000000      8.3830000000
      5      C       18.6070000000     27.1000000000      6.2280000000
      6      C       19.3580000000     25.3160000000     10.0780000000
      7      C       20.1330000000     26.4130000000      9.6490000000
      8      F       19.7610000000     27.4250000000      5.5660000000
      9      F       17.8810000000     26.3090000000      5.3860000000
     10      F       17.9010000000     28.2760000000      6.3570000000
     11      N       21.1360000000     26.9700000000     10.4720000000
     12      C       21.5360000000     26.5190000000     11.7180000000
     13      C       21.8990000000     28.1510000000     10.0830000000
     14      O       21.1440000000     25.5200000000     12.3330000000
     15      O       22.4860000000     27.3540000000     12.2340000000
     16      C       22.6980000000     28.4850000000     11.3580000000
     17      C       22.1640000000     29.7710000000     12.0340000000
     18      O       22.0490000000     30.8220000000     11.3680000000
     19      N       21.8070000000     29.6790000000     13.3410000000
     20      C       20.9410000000     30.6830000000     13.9750000000
     21      C       19.5530000000     30.0470000000     14.2430000000
     22      C       21.6210000000     31.2390000000     15.2670000000
     23      C       18.9290000000     29.3970000000     13.0230000000
     24      C       20.8610000000     32.4330000000     15.8870000000
     25      O       21.7670000000     30.2100000000     16.2510000000
     26      C       18.2550000000     28.1750000000     13.1600000000
     27      C       18.9810000000     30.0010000000     11.7570000000
     28      N       20.7160000000     33.5620000000     14.9370000000
     29      C       17.6300000000     27.5800000000     12.0640000000
     30      C       18.3560000000     29.4040000000     10.6620000000
     31      S       19.3100000000     34.5030000000     15.0280000000
     32      C       21.9450000000     34.1120000000     14.3060000000
     33      C       17.6710000000     28.1970000000     10.8130000000
     34      C       18.1150000000     33.4790000000     14.1270000000
     35      O       18.8470000000     34.5960000000     16.4180000000
     36      O       19.5410000000     35.7300000000     14.2640000000
     37      C       23.0060000000     34.5930000000     15.3270000000
     38      C       18.1410000000     33.4470000000     12.7230000000
     39      C       17.1960000000     32.6850000000     14.8290000000
     40      C       24.2600000000     35.0620000000     14.5820000000
     41      C       22.4530000000     35.6940000000     16.2380000000
     42      C       17.2670000000     32.6170000000     12.0270000000
     43      C       16.3160000000     31.8440000000     14.1440000000
     44      C       16.3740000000     31.8090000000     12.7440000000
     45      O       15.5550000000     30.9760000000     11.9710000000
     46      C       14.6950000000     30.0790000000     12.5470000000
     47      F       14.1190000000     29.3540000000     11.5680000000
     48      F       15.3260000000     29.2270000000     13.3990000000
     49      F       13.7070000000     30.7100000000     13.2510000000
     50      H       17.3160000000     24.9680000000      7.3680000000
     51      H       17.7620000000     23.9630000000      9.5990000000
     52      H       20.4710000000     27.8180000000      8.0220000000
     53      H       19.5390000000     24.8760000000     11.0530000000
     54      H       21.2390000000     28.9820000000      9.7950000000
     55      H       22.5550000000     27.9370000000      9.2230000000
     56      H       23.7810000000     28.5700000000     11.1670000000
     57      H       21.8750000000     28.7720000000     13.8060000000
     58      H       20.8430000000     31.5090000000     13.2530000000
     59      H       19.6470000000     29.3010000000     15.0370000000
     60      H       18.8790000000     30.8210000000     14.6310000000
     61      H       22.6460000000     31.5520000000     15.0020000000
     62      H       19.8560000000     32.1160000000     16.1950000000
     63      H       21.3850000000     32.7560000000     16.8020000000
     64      H       20.9050000000     30.0130000000     16.6630000000
     65      H       18.2170000000     27.6930000000     14.1330000000
     66      H       19.5100000000     30.9400000000     11.6240000000
     67      H       17.1090000000     26.6340000000     12.1870000000
     68      H       18.4000000000     29.8870000000      9.6890000000
     69      H       22.3830000000     33.3420000000     13.6520000000
     70      H       21.6420000000     34.9420000000     13.6610000000
     71      H       17.1790000000     27.7380000000      9.9600000000
     72      H       23.2870000000     33.7350000000     15.9570000000
     73      H       18.8480000000     34.0700000000     12.1800000000
     74      H       17.1700000000     32.7220000000     15.9140000000
     75      H       24.6600000000     34.2630000000     13.9600000000
     76      H       25.0330000000     35.3670000000     15.2830000000
     77      H       24.0360000000     35.9100000000     13.9380000000
     78      H       22.1390000000     36.5580000000     15.6570000000
     79      H       21.5950000000     35.3370000000     16.8030000000
     80      H       23.2100000000     36.0200000000     16.9470000000
     81      H       17.2780000000     32.5780000000     10.9430000000
     82      H       15.6180000000     31.2330000000     14.7060000000
 $END
