 $FMOPRP MODPAR=8205 NAODIR=210 MAXIT=100
     $END
 $FMO
      SCFTYP(1)=RHF
      MODGRD=10
      MODMUL=0
      MAXCAO=5
      MAXBND=4
      NLAYER=1
      NFRAG=4
      ICHARG(1)=   0, 0, 0, 0
      FRGNAM(1)= Frag1, Frag2, Frag3, Frag4
      INDAT(1)= 0
                    1   -15    47   -56     0
                   16   -22    24    26   -27    30   -31    36
                   57   -62    65   -66    69   -70    72     0
                   23    25    28   -29    33   -35    39   -46
                   63   -64    67   -68    79   -84     0
                   32    37   -38    71    73   -78     0
 $END
 $FMOBND
         -13      16  DFTB-C
         -20      23  DFTB-C
         -28      32  DFTB-C
 $END
 $DATA
 FMO calculation : umass_1_ad_63_2d_vm2_vchem
 C1 
 C   6
 N   7
 O   8
 S   16
 F   9
 H   1
 $END
 $FMOXYZ
      1      C       18.9490000000     26.6280000000      6.5150000000
      2      C       18.4610000000     25.7740000000      7.5240000000
      3      C       20.0900000000     27.4060000000      6.7930000000
      4      C       18.2410000000     26.6800000000      5.2050000000
      5      C       19.0780000000     25.6910000000      8.7650000000
      6      C       20.7150000000     27.3390000000      8.0330000000
      7      C       18.8110000000     27.5390000000      4.0870000000
      8      O       17.2070000000     26.0310000000      5.0250000000
      9      C       20.2140000000     26.4840000000      9.0380000000
     10      N       20.8430000000     26.4500000000     10.2990000000
     11      C       21.9810000000     27.3010000000     10.6280000000
     12      C       20.4970000000     25.6590000000     11.3820000000
     13      C       22.2020000000     27.0320000000     12.1280000000
     14      O       19.6070000000     24.8020000000     11.4540000000
     15      O       21.3070000000     25.9410000000     12.4450000000
     16      C       21.8380000000     28.2670000000     12.9910000000
     17      N       21.0210000000     28.0500000000     14.0600000000
     18      O       22.2820000000     29.3910000000     12.6900000000
     19      C       20.2580000000     29.1570000000     14.6650000000
     20      C       20.4670000000     29.1950000000     16.2110000000
     21      C       18.7720000000     29.0150000000     14.2570000000
     22      O       19.8580000000     28.0630000000     16.8370000000
     23      C       19.8640000000     30.4510000000     16.8670000000
     24      C       18.5770000000     28.9060000000     12.7570000000
     25      N       20.3740000000     31.7100000000     16.2650000000
     26      C       19.2370000000     29.7710000000     11.8710000000
     27      C       17.7130000000     27.9340000000     12.2330000000
     28      C       21.8210000000     32.0120000000     16.5200000000
     29      S       19.2860000000     33.0350000000     16.2930000000
     30      C       19.0340000000     29.6690000000     10.4950000000
     31      C       17.5040000000     27.8380000000     10.8560000000
     32      C       22.7340000000     31.6950000000     15.3120000000
     33      O       18.5850000000     33.1320000000     17.5840000000
     34      C       18.0770000000     32.5270000000     15.0540000000
     35      O       20.0210000000     34.2060000000     15.8100000000
     36      C       18.1610000000     28.7060000000      9.9840000000
     37      C       22.2860000000     32.4440000000     14.0530000000
     38      C       24.1870000000     32.0270000000     15.6690000000
     39      C       16.8460000000     31.9680000000     15.4630000000
     40      C       18.3610000000     32.6710000000     13.6880000000
     41      C       15.9500000000     31.5540000000     14.4880000000
     42      C       17.4510000000     32.2500000000     12.7150000000
     43      C       16.2290000000     31.6680000000     13.1040000000
     44      F       14.7700000000     31.0070000000     14.8640000000
     45      O       15.2890000000     31.2060000000     12.2470000000
     46      C       15.5560000000     31.2620000000     10.8480000000
     47      H       17.5800000000     25.1710000000      7.3150000000
     48      H       20.4900000000     28.0760000000      6.0380000000
     49      H       18.6800000000     25.0320000000      9.5290000000
     50      H       21.5880000000     27.9550000000      8.2200000000
     51      H       18.1950000000     27.4620000000      3.1960000000
     52      H       18.8580000000     28.5840000000      4.3880000000
     53      H       19.8250000000     27.2250000000      3.8390000000
     54      H       21.7580000000     28.3620000000     10.4390000000
     55      H       22.8640000000     27.0370000000     10.0230000000
     56      H       23.2320000000     26.7010000000     12.3490000000
     57      H       20.6240000000     27.1130000000     14.1690000000
     58      H       20.6730000000     30.0830000000     14.2380000000
     59      H       21.5600000000     29.1660000000     16.4070000000
     60      H       18.3470000000     28.1360000000     14.7490000000
     61      H       18.2190000000     29.8810000000     14.6410000000
     62      H       20.2970000000     27.2470000000     16.5370000000
     63      H       18.7730000000     30.4330000000     16.7540000000
     64      H       20.0750000000     30.4260000000     17.9490000000
     65      H       19.9190000000     30.5250000000     12.2550000000
     66      H       17.2020000000     27.2530000000     12.9080000000
     67      H       21.9190000000     33.0740000000     16.7750000000
     68      H       22.1460000000     31.4370000000     17.3980000000
     69      H       19.5550000000     30.3440000000      9.8220000000
     70      H       16.8300000000     27.0810000000     10.4640000000
     71      H       22.6770000000     30.6170000000     15.1010000000
     72      H       17.9990000000     28.6320000000      8.9120000000
     73      H       22.3120000000     33.5200000000     14.2050000000
     74      H       22.9320000000     32.1990000000     13.2140000000
     75      H       21.2690000000     32.1650000000     13.7820000000
     76      H       24.3020000000     33.0880000000     15.8850000000
     77      H       24.5080000000     31.4680000000     16.5450000000
     78      H       24.8520000000     31.7790000000     14.8450000000
     79      H       16.6060000000     31.8640000000     16.5170000000
     80      H       19.3030000000     33.1160000000     13.3810000000
     81      H       17.7000000000     32.3710000000     11.6670000000
     82      H       15.6830000000     32.3010000000     10.5180000000
     83      H       16.4610000000     30.6900000000     10.6040000000
     84      H       14.6970000000     30.8210000000     10.3380000000
 $END
