 $FMOPRP MODPAR=8205 NAODIR=210 MAXIT=100
     $END
 $FMO
      SCFTYP(1)=RHF
      MODGRD=10
      MODMUL=0
      MAXCAO=5
      MAXBND=4
      NLAYER=1
      NFRAG=4
      ICHARG(1)=   0, 0, 0, 0
      FRGNAM(1)= Frag1, Frag2, Frag3, Frag4
      INDAT(1)= 0
                    1   -13    43   -49     0
                   14   -21    23   -24    26   -27    30    50
                  -55    58   -61    64     0
                   22    25    28   -29    32   -34    37   -42
                   56   -57    62   -63    72   -77     0
                   31    35   -36    65   -71     0
 $END
 $FMOBND
         -13      14  DFTB-C
         -19      22  DFTB-C
         -28      31  DFTB-C
 $END
 $DATA
 FMO calculation : umass_1_ad_76_2d_vm2_vchem
 C1 
 C   6
 N   7
 O   8
 S   16
 F   9
 H   1
 $END
 $FMOXYZ
      1      C       23.4500000000     24.6200000000      6.9790000000
      2      C       23.0340000000     25.9290000000      6.7220000000
      3      C       23.6700000000     24.2570000000      8.3120000000
      4      F       22.8170000000     26.3040000000      5.4470000000
      5      C       22.8280000000     26.8700000000      7.7330000000
      6      C       23.4760000000     25.1660000000      9.3510000000
      7      C       23.0480000000     26.4810000000      9.0710000000
      8      N       22.8230000000     27.4140000000     10.1080000000
      9      C       22.9820000000     27.2060000000     11.4650000000
     10      C       22.3400000000     28.7640000000      9.8450000000
     11      O       22.6250000000     28.3290000000     12.1560000000
     12      O       23.3830000000     26.1890000000     12.0460000000
     13      C       22.1530000000     29.3560000000     11.2540000000
     14      C       20.6740000000     29.6840000000     11.5630000000
     15      N       20.1850000000     29.2570000000     12.7600000000
     16      O       19.9950000000     30.3240000000     10.7350000000
     17      C       18.7370000000     29.2220000000     13.0190000000
     18      C       18.2050000000     27.7680000000     12.8670000000
     19      C       18.4240000000     29.8120000000     14.4290000000
     20      C       18.7740000000     27.0840000000     11.6420000000
     21      O       18.9020000000     28.9380000000     15.4560000000
     22      C       16.9020000000     30.0330000000     14.6400000000
     23      C       19.6480000000     25.9970000000     11.7780000000
     24      C       18.4700000000     27.5530000000     10.3550000000
     25      N       16.5780000000     31.2550000000     15.4170000000
     26      C       20.1960000000     25.3810000000     10.6520000000
     27      C       19.0250000000     26.9430000000      9.2290000000
     28      C       17.1360000000     31.3030000000     16.7940000000
     29      S       16.4160000000     32.7140000000     14.5580000000
     30      C       19.8840000000     25.8510000000      9.3740000000
     31      C       16.3200000000     30.4190000000     17.7660000000
     32      O       15.5880000000     32.4140000000     13.3830000000
     33      O       15.9470000000     33.7160000000     15.5220000000
     34      C       18.0600000000     33.1740000000     13.9840000000
     35      C       16.9970000000     30.3880000000     19.1390000000
     36      C       14.8710000000     30.9080000000     17.8660000000
     37      C       18.9690000000     33.8030000000     14.8560000000
     38      C       18.4810000000     32.8150000000     12.6890000000
     39      C       20.2650000000     34.0770000000     14.4440000000
     40      C       19.7760000000     33.0840000000     12.2680000000
     41      C       20.6910000000     33.7130000000     13.1440000000
     42      N       21.9710000000     34.0030000000     12.7230000000
     43      H       23.5970000000     23.9150000000      6.1690000000
     44      H       23.9960000000     23.2480000000      8.5460000000
     45      H       22.4990000000     27.8700000000      7.4760000000
     46      H       23.6450000000     24.8610000000     10.3770000000
     47      H       21.3900000000     28.7510000000      9.2860000000
     48      H       23.0650000000     29.3380000000      9.2470000000
     49      H       22.7750000000     30.2550000000     11.4110000000
     50      H       20.7770000000     28.6530000000     13.3330000000
     51      H       18.2770000000     29.8650000000     12.2510000000
     52      H       18.4710000000     27.2010000000     13.7650000000
     53      H       17.1120000000     27.8030000000     12.8190000000
     54      H       18.9600000000     30.7810000000     14.5180000000
     55      H       19.8770000000     28.9250000000     15.4500000000
     56      H       16.3890000000     30.1070000000     13.6740000000
     57      H       16.4820000000     29.1680000000     15.1680000000
     58      H       19.8990000000     25.6320000000     12.7710000000
     59      H       17.8060000000     28.4050000000     10.2360000000
     60      H       20.8720000000     24.5380000000     10.7710000000
     61      H       18.7860000000     27.3170000000      8.2380000000
     62      H       18.1880000000     30.9800000000     16.7880000000
     63      H       17.1130000000     32.3440000000     17.1360000000
     64      H       20.3100000000     25.3720000000      8.4980000000
     65      H       16.3110000000     29.3940000000     17.3660000000
     66      H       18.0100000000     29.9960000000     19.0630000000
     67      H       17.0550000000     31.3870000000     19.5670000000
     68      H       16.4400000000     29.7580000000     19.8290000000
     69      H       14.4100000000     30.9410000000     16.8810000000
     70      H       14.2810000000     30.2480000000     18.4980000000
     71      H       14.8290000000     31.9090000000     18.2900000000
     72      H       18.6470000000     34.0790000000     15.8570000000
     73      H       17.7840000000     32.3230000000     12.0160000000
     74      H       20.9630000000     34.5620000000     15.1200000000
     75      H       20.0950000000     32.7910000000     11.2730000000
     76      H       22.3130000000     33.5690000000     11.8730000000
     77      H       22.6620000000     34.2690000000     13.4160000000
 $END
