 $FMOPRP MODPAR=8205 NAODIR=210 MAXIT=100
     $END
 $FMO
      SCFTYP(1)=RHF
      MODGRD=10
      MODMUL=0
      MAXCAO=5
      MAXBND=4
      NLAYER=1
      NFRAG=4
      ICHARG(1)=   0, 0, 0, 0
      FRGNAM(1)= Frag1, Frag2, Frag3, Frag4
      INDAT(1)= 0
                    1   -13    46   -52     0
                   14   -20    22   -24    26   -27    30    53
                  -57    60   -64    67     0
                   21    25    28   -29    31   -33    35   -36
                   39   -40    43   -45    58   -59    65   -66
                   68   -69    71    74   -77     0
                   34    37   -38    41   -42    70    72   -73
                    0
 $END
 $FMOBND
         -11      14  DFTB-C
         -19      21  DFTB-C
         -29      34  DFTB-C
 $END
 $DATA
 FMO calculation : umass_1_kk_98_2d_vm2_vchem
 C1 
 C   6
 N   7
 O   8
 S   16
 F   9
 H   1
 $END
 $FMOXYZ
      1      C       20.8740000000     26.7140000000      5.8510000000
      2      C       20.7410000000     28.0310000000      6.2970000000
      3      C       21.4890000000     25.7960000000      6.7070000000
      4      C       21.1920000000     28.4550000000      7.5490000000
      5      F       20.1510000000     28.9350000000      5.4910000000
      6      C       21.9520000000     26.1780000000      7.9660000000
      7      C       21.8030000000     27.5120000000      8.4010000000
      8      N       22.2400000000     27.9160000000      9.6820000000
      9      C       22.0630000000     29.2810000000     10.1660000000
     10      C       22.8150000000     27.1220000000     10.6560000000
     11      C       22.5440000000     29.2040000000     11.6260000000
     12      O       23.0310000000     27.8520000000     11.7900000000
     13      O       23.1240000000     25.9250000000     10.5880000000
     14      C       21.4000000000     29.4740000000     12.6310000000
     15      O       20.6250000000     30.4330000000     12.4420000000
     16      N       21.3050000000     28.6350000000     13.6980000000
     17      C       20.0880000000     28.5900000000     14.5260000000
     18      C       19.2570000000     27.3250000000     14.1720000000
     19      C       20.4530000000     28.6610000000     16.0410000000
     20      C       19.1070000000     27.1650000000     12.6760000000
     21      C       19.2130000000     28.8580000000     16.9320000000
     22      O       21.0970000000     27.4570000000     16.4680000000
     23      C       19.8280000000     26.1830000000     11.9840000000
     24      C       18.2750000000     28.0310000000     11.9510000000
     25      N       18.4920000000     30.1200000000     16.6080000000
     26      C       19.7090000000     26.0610000000     10.5980000000
     27      C       18.1650000000     27.9180000000     10.5660000000
     28      S       16.8000000000     30.0310000000     16.3900000000
     29      C       19.0440000000     31.3500000000     17.2530000000
     30      C       18.8810000000     26.9310000000      9.8850000000
     31      O       16.5530000000     28.8090000000     15.6180000000
     32      C       16.5210000000     31.4890000000     15.3600000000
     33      O       16.0600000000     30.2120000000     17.6500000000
     34      C       20.1880000000     31.9330000000     16.4660000000
     35      C       15.8550000000     32.5960000000     15.9010000000
     36      C       16.9780000000     31.4930000000     14.0320000000
     37      S       20.0850000000     32.1930000000     14.7340000000
     38      C       21.4130000000     32.3290000000     16.9480000000
     39      C       15.6510000000     33.7290000000     15.1040000000
     40      C       16.7650000000     32.6400000000     13.2410000000
     41      C       21.7090000000     32.8280000000     14.6850000000
     42      C       22.2790000000     32.8400000000     15.9310000000
     43      C       16.1020000000     33.7590000000     13.7900000000
     44      O       17.1700000000     32.7440000000     11.9530000000
     45      C       17.8150000000     31.6310000000     11.3380000000
     46      H       20.5100000000     26.4190000000      4.8730000000
     47      H       21.6100000000     24.7650000000      6.3890000000
     48      H       21.0600000000     29.4900000000      7.8450000000
     49      H       22.4190000000     25.4490000000      8.6170000000
     50      H       21.0080000000     29.5960000000     10.1110000000
     51      H       22.6510000000     29.9960000000      9.5690000000
     52      H       23.3850000000     29.8920000000     11.8250000000
     53      H       21.9140000000     27.8150000000     13.7230000000
     54      H       19.5100000000     29.4910000000     14.2610000000
     55      H       19.7510000000     26.4480000000     14.5980000000
     56      H       18.2750000000     27.4160000000     14.6450000000
     57      H       21.1540000000     29.5110000000     16.1860000000
     58      H       18.5260000000     28.0160000000     16.7990000000
     59      H       19.5200000000     28.8670000000     17.9890000000
     60      H       21.9480000000     27.3560000000     16.0030000000
     61      H       20.4810000000     25.5090000000     12.5320000000
     62      H       17.7120000000     28.7970000000     12.4800000000
     63      H       20.2690000000     25.2920000000     10.0740000000
     64      H       17.5200000000     28.5990000000     10.0170000000
     65      H       18.2280000000     32.0820000000     17.3430000000
     66      H       19.3780000000     31.1160000000     18.2750000000
     67      H       18.7930000000     26.8390000000      8.8060000000
     68      H       15.5040000000     32.5690000000     16.9290000000
     69      H       17.4810000000     30.6140000000     13.6370000000
     70      H       21.6940000000     32.2490000000     17.9920000000
     71      H       15.1350000000     34.5900000000     15.5180000000
     72      H       22.1610000000     33.1540000000     13.7580000000
     73      H       23.2860000000     33.1930000000     16.1260000000
     74      H       15.9440000000     34.6380000000     13.1720000000
     75      H       18.0700000000     31.9300000000     10.3190000000
     76      H       18.7260000000     31.3550000000     11.8800000000
     77      H       17.1350000000     30.7680000000     11.2990000000
 $END
