 $FMOPRP MODPAR=8205 NAODIR=210 MAXIT=100
     $END
 $FMO
      SCFTYP(1)=RHF
      MODGRD=10
      MODMUL=0
      MAXCAO=5
      MAXBND=4
      NLAYER=1
      NFRAG=4
      ICHARG(1)=   0, 0, 0, 0
      FRGNAM(1)= Frag1, Frag2, Frag3, Frag4
      INDAT(1)= 0
                    1   -15    45   -54     0
                   16   -22    24    26   -27    30   -31    36
                   55   -60    63   -64    67   -68    70     0
                   23    25    28   -29    32   -34    37   -38
                   41   -44    61   -62    65   -66    71   -72
                   79   -82     0
                   35    39   -40    69    73   -78     0
 $END
 $FMOBND
         -13      16  DFTB-C
         -20      23  DFTB-C
         -29      35  DFTB-C
 $END
 $DATA
 FMO calculation : umass_1_ad_73_2d_vm2_vchem
 C1 
 C   6
 N   7
 O   8
 S   16
 H   1
 $END
 $FMOXYZ
      1      C       19.8530000000     25.2400000000      5.9290000000
      2      C       20.0420000000     26.6360000000      5.9480000000
      3      C       19.1740000000     24.6160000000      4.7590000000
      4      C       20.3140000000     24.4920000000      7.0300000000
      5      C       20.6630000000     27.2660000000      7.0180000000
      6      C       18.9820000000     23.1090000000      4.7300000000
      7      O       18.7710000000     25.3120000000      3.8220000000
      8      C       20.9350000000     25.1080000000      8.1100000000
      9      C       21.1140000000     26.5070000000      8.1190000000
     10      N       21.7210000000     27.1590000000      9.2130000000
     11      C       21.8890000000     28.6080000000      9.2600000000
     12      C       22.2030000000     26.5730000000     10.3700000000
     13      C       22.4900000000     28.8500000000     10.6580000000
     14      O       22.2380000000     25.3710000000     10.6650000000
     15      O       22.6740000000     27.5310000000     11.2200000000
     16      C       21.5520000000     29.6810000000     11.5640000000
     17      N       21.2990000000     29.1870000000     12.8060000000
     18      O       21.0750000000     30.7550000000     11.1450000000
     19      C       20.1790000000     29.7010000000     13.6110000000
     20      C       20.6560000000     30.0290000000     15.0600000000
     21      C       19.0030000000     28.6840000000     13.5900000000
     22      O       20.9420000000     28.8310000000     15.7840000000
     23      C       19.5940000000     30.8130000000     15.8510000000
     24      C       18.7550000000     28.1410000000     12.1990000000
     25      N       19.3300000000     32.1300000000     15.2110000000
     26      C       18.3150000000     28.9880000000     11.1710000000
     27      C       18.9940000000     26.7900000000     11.9100000000
     28      S       17.6840000000     32.5660000000     15.0260000000
     29      C       20.2820000000     33.2110000000     15.6120000000
     30      C       18.1060000000     28.4900000000      9.8850000000
     31      C       18.7780000000     26.2910000000     10.6240000000
     32      O       17.6500000000     33.7930000000     14.2230000000
     33      C       17.0810000000     32.9340000000     16.6780000000
     34      O       16.9990000000     31.3700000000     14.5180000000
     35      C       20.7440000000     34.0860000000     14.4260000000
     36      C       18.3310000000     27.1390000000      9.6090000000
     37      C       16.5720000000     31.9030000000     17.4920000000
     38      C       17.2010000000     34.2360000000     17.2020000000
     39      C       21.6260000000     35.2280000000     14.9440000000
     40      C       21.4800000000     33.2580000000     13.3660000000
     41      C       16.1780000000     32.1670000000     18.7970000000
     42      C       16.8110000000     34.5080000000     18.5070000000
     43      C       16.3000000000     33.4740000000     19.3280000000
     44      N       15.8860000000     33.7430000000     20.6140000000
     45      H       19.6870000000     27.2220000000      5.1030000000
     46      H       20.1850000000     23.4120000000      7.0450000000
     47      H       20.7900000000     28.3440000000      7.0030000000
     48      H       19.9440000000     22.5980000000      4.7780000000
     49      H       18.3950000000     22.7770000000      5.5850000000
     50      H       18.4730000000     22.8050000000      3.8200000000
     51      H       21.2730000000     24.5120000000      8.9510000000
     52      H       20.9260000000     29.1290000000      9.1400000000
     53      H       22.5550000000     28.9580000000      8.4560000000
     54      H       23.4820000000     29.3350000000     10.6030000000
     55      H       21.6450000000     28.2530000000     13.0330000000
     56      H       19.8590000000     30.6360000000     13.1230000000
     57      H       21.5830000000     30.6380000000     14.9890000000
     58      H       19.2290000000     27.8620000000     14.2750000000
     59      H       18.1070000000     29.1880000000     13.9670000000
     60      H       21.6780000000     28.3560000000     15.3580000000
     61      H       18.6630000000     30.2390000000     15.8920000000
     62      H       19.9340000000     30.9520000000     16.8890000000
     63      H       18.1390000000     30.0400000000     11.3810000000
     64      H       19.3450000000     26.1270000000     12.6960000000
     65      H       19.8270000000     33.8470000000     16.3910000000
     66      H       21.1520000000     32.7260000000     16.0690000000
     67      H       17.7660000000     29.1560000000      9.0960000000
     68      H       18.9620000000     25.2410000000     10.4120000000
     69      H       19.8540000000     34.5280000000     13.9570000000
     70      H       18.1590000000     26.7500000000      8.6090000000
     71      H       16.4790000000     30.8980000000     17.0880000000
     72      H       17.5890000000     35.0340000000     16.5750000000
     73      H       22.5270000000     34.8420000000     15.4170000000
     74      H       21.9270000000     35.8800000000     14.1280000000
     75      H       21.0910000000     35.8280000000     15.6780000000
     76      H       20.8210000000     32.5160000000     12.9180000000
     77      H       21.8490000000     33.9010000000     12.5710000000
     78      H       22.3310000000     32.7340000000     13.7980000000
     79      H       15.7800000000     31.3710000000     19.4190000000
     80      H       16.9030000000     35.5140000000     18.9060000000
     81      H       15.7060000000     32.9650000000     21.2400000000
     82      H       16.1520000000     34.6260000000     21.0370000000
 $END
