 $FMOPRP MODPAR=8205 NAODIR=210 MAXIT=100
     $END
 $FMO
      SCFTYP(1)=RHF
      MODGRD=10
      MODMUL=0
      MAXCAO=5
      MAXBND=4
      NLAYER=1
      NFRAG=4
      ICHARG(1)=   0, 0, 0, 0
      FRGNAM(1)= Frag1, Frag2, Frag3, Frag4
      INDAT(1)= 0
                    1   -16    47   -53     0
                   17   -22    24   -25    27   -28    31   -32
                   37    54   -58    61   -63    66   -67    69
                    0
                   23    26    29   -30    34   -36    40   -46
                   59   -60    64   -65    76   -82     0
                   33    38   -39    68    70   -75     0
 $END
 $FMOBND
         -14      17  DFTB-C
         -21      23  DFTB-C
         -29      33  DFTB-C
 $END
 $DATA
 FMO calculation : umass_1_ad_78_2d_vm2_vchem
 C1 
 C   6
 N   7
 O   8
 S   16
 F   9
 H   1
 $END
 $FMOXYZ
      1      C       19.8490000000     27.3960000000      6.3690000000
      2      C       20.9310000000     28.1810000000      6.7740000000
      3      C       19.3060000000     26.4620000000      7.2640000000
      4      C       21.4660000000     28.0510000000      8.0530000000
      5      C       19.8410000000     26.3120000000      8.5520000000
      6      C       18.1230000000     25.6060000000      6.8750000000
      7      C       20.9240000000     27.1150000000      8.9570000000
      8      F       17.0860000000     25.7260000000      7.7690000000
      9      F       17.6150000000     25.9130000000      5.6480000000
     10      F       18.4380000000     24.2670000000      6.8420000000
     11      N       21.4520000000     27.0120000000     10.2610000000
     12      C       22.4930000000     27.9070000000     10.7590000000
     13      C       21.0920000000     26.0960000000     11.2340000000
     14      C       22.5750000000     27.5450000000     12.2530000000
     15      O       21.7800000000     26.3430000000     12.3860000000
     16      O       20.2830000000     25.1630000000     11.1450000000
     17      C       21.9710000000     28.6620000000     13.1420000000
     18      O       22.3070000000     29.8510000000     12.9590000000
     19      N       21.0700000000     28.2820000000     14.0840000000
     20      C       20.1460000000     29.2520000000     14.6930000000
     21      C       20.2060000000     29.1510000000     16.2380000000
     22      C       18.7260000000     29.0180000000     14.1220000000
     23      C       19.3950000000     30.2560000000     16.9540000000
     24      O       19.7040000000     27.8700000000     16.6290000000
     25      C       18.6780000000     29.0430000000     12.6080000000
     26      N       19.8000000000     31.6210000000     16.5340000000
     27      C       17.9360000000     28.0750000000     11.9160000000
     28      C       19.3480000000     30.0330000000     11.8710000000
     29      C       21.1690000000     32.0550000000     16.9630000000
     30      S       18.5550000000     32.8060000000     16.5830000000
     31      C       17.8540000000     28.1000000000     10.5230000000
     32      C       19.2730000000     30.0520000000     10.4780000000
     33      C       22.2190000000     31.9670000000     15.8290000000
     34      C       17.5320000000     32.3030000000     15.1940000000
     35      O       17.7480000000     32.6790000000     17.8100000000
     36      O       19.1840000000     34.0980000000     16.2970000000
     37      C       18.5210000000     29.0910000000      9.8000000000
     38      C       21.7930000000     32.7810000000     14.6030000000
     39      C       23.5820000000     32.4290000000     16.3560000000
     40      C       16.3480000000     31.5710000000     15.4140000000
     41      C       17.9220000000     32.6100000000     13.8790000000
     42      C       15.5820000000     31.1400000000     14.3400000000
     43      C       17.1610000000     32.1870000000     12.7940000000
     44      C       15.9870000000     31.4340000000     13.0190000000
     45      O       15.2020000000     30.9660000000     12.0270000000
     46      C       15.5830000000     31.1970000000     10.6730000000
     47      H       19.4280000000     27.5040000000      5.3740000000
     48      H       21.3570000000     28.9060000000      6.0870000000
     49      H       22.3020000000     28.6770000000      8.3480000000
     50      H       19.4050000000     25.5920000000      9.2370000000
     51      H       22.2190000000     28.9630000000     10.6180000000
     52      H       23.4480000000     27.7390000000     10.2350000000
     53      H       23.6040000000     27.3090000000     12.5750000000
     54      H       20.7950000000     27.2990000000     14.1310000000
     55      H       20.5050000000     30.2490000000     14.3940000000
     56      H       21.2710000000     29.2250000000     16.5470000000
     57      H       18.3480000000     28.0590000000     14.4870000000
     58      H       18.0550000000     29.7870000000     14.5230000000
     59      H       18.3280000000     30.1300000000     16.7300000000
     60      H       19.5100000000     30.1350000000     18.0450000000
     61      H       19.7570000000     27.7850000000     17.5990000000
     62      H       17.4170000000     27.2990000000     12.4750000000
     63      H       19.9340000000     30.7900000000     12.3850000000
     64      H       21.1130000000     33.0900000000     17.3180000000
     65      H       21.4820000000     31.4350000000     17.8140000000
     66      H       17.2700000000     27.3470000000     10.0020000000
     67      H       19.7980000000     30.8230000000      9.9210000000
     68      H       22.3160000000     30.9160000000     15.5190000000
     69      H       18.4560000000     29.1130000000      8.7150000000
     70      H       22.5420000000     32.7090000000     13.8190000000
     71      H       20.8530000000     32.4070000000     14.2020000000
     72      H       21.6590000000     33.8300000000     14.8560000000
     73      H       23.5450000000     33.4690000000     16.6720000000
     74      H       23.8900000000     31.8280000000     17.2100000000
     75      H       24.3420000000     32.3380000000     15.5850000000
     76      H       16.0400000000     31.3440000000     16.4310000000
     77      H       18.8280000000     33.1860000000     13.7090000000
     78      H       14.6730000000     30.5710000000     14.5080000000
     79      H       17.4850000000     32.4370000000     11.7890000000
     80      H       16.5660000000     30.7570000000     10.4650000000
     81      H       14.8320000000     30.7200000000     10.0400000000
     82      H       15.6120000000     32.2730000000     10.4550000000
 $END
