 $FMOPRP MODPAR=8205 NAODIR=210 MAXIT=100
     $END
 $FMO
      SCFTYP(1)=RHF
      MODGRD=10
      MODMUL=0
      MAXCAO=5
      MAXBND=4
      NLAYER=1
      NFRAG=4
      ICHARG(1)=   0, 0, 0, 0
      FRGNAM(1)= Frag1, Frag2, Frag3, Frag4
      INDAT(1)= 0
                    1   -12    43   -50     0
                   13   -20    22   -23    25   -26    29    51
                  -56    59   -62    65     0
                   21    24    27   -28    31   -33    36   -42
                   57   -58    63   -64    73   -79     0
                   30    34   -35    66   -72     0
 $END
 $FMOBND
         -12      13  DFTB-C
         -18      21  DFTB-C
         -27      30  DFTB-C
 $END
 $DATA
 FMO calculation : umass_1_ad_23_2d_vm2_vchem
 C1 
 C   6
 N   7
 O   8
 S   16
 H   1
 $END
 $FMOXYZ
      1      C       19.2230000000     24.6140000000      6.0000000000
      2      C       18.6430000000     24.1550000000      7.1860000000
      3      C       20.3340000000     25.4580000000      6.0620000000
      4      C       19.1600000000     24.5290000000      8.4250000000
      5      C       20.8630000000     25.8450000000      7.2930000000
      6      C       20.2770000000     25.3830000000      8.4880000000
      7      N       20.8170000000     25.7950000000      9.7340000000
      8      C       20.3760000000     25.4430000000     10.9920000000
      9      C       21.9470000000     26.7130000000      9.8190000000
     10      O       19.4500000000     24.6780000000     11.3010000000
     11      O       21.1290000000     26.0680000000     11.9480000000
     12      C       22.1100000000     26.9370000000     11.3340000000
     13      C       21.8380000000     28.4030000000     11.7420000000
     14      O       22.3800000000     29.3340000000     11.1060000000
     15      N       21.0160000000     28.6110000000     12.8010000000
     16      C       20.4400000000     29.9330000000     13.0800000000
     17      C       18.9550000000     29.9690000000     12.6070000000
     18      C       20.5740000000     30.2460000000     14.5920000000
     19      C       18.7830000000     29.3320000000     11.2450000000
     20      O       19.9000000000     29.2080000000     15.3170000000
     21      C       19.9880000000     31.6340000000     14.9600000000
     22      C       19.3360000000     29.9280000000     10.1010000000
     23      C       18.1040000000     28.1120000000     11.1140000000
     24      N       20.5710000000     32.1690000000     16.2160000000
     25      C       19.2030000000     29.3200000000      8.8530000000
     26      C       17.9700000000     27.5060000000      9.8630000000
     27      C       21.8070000000     32.9820000000     16.1200000000
     28      S       19.7490000000     31.9790000000     17.6650000000
     29      C       18.5170000000     28.1090000000      8.7290000000
     30      C       21.6710000000     34.2590000000     15.2530000000
     31      O       19.0880000000     30.6580000000     17.5970000000
     32      C       18.4440000000     33.2330000000     17.7010000000
     33      O       20.6840000000     32.2490000000     18.7570000000
     34      C       20.5180000000     35.1540000000     15.7160000000
     35      C       23.0010000000     35.0210000000     15.2570000000
     36      C       17.2680000000     33.0220000000     16.9620000000
     37      C       18.6370000000     34.4130000000     18.4330000000
     38      C       16.2750000000     34.0210000000     16.9590000000
     39      C       17.6400000000     35.3950000000     18.4230000000
     40      O       15.1110000000     33.9100000000     16.2750000000
     41      C       16.4710000000     35.2100000000     17.6930000000
     42      C       14.8660000000     32.7330000000     15.5110000000
     43      H       18.8130000000     24.3180000000      5.0390000000
     44      H       17.7780000000     23.4990000000      7.1470000000
     45      H       20.7930000000     25.8220000000      5.1470000000
     46      H       18.6990000000     24.1700000000      9.3390000000
     47      H       21.7250000000     26.5040000000      7.3200000000
     48      H       22.8520000000     26.2770000000      9.3670000000
     49      H       21.7420000000     27.6580000000      9.2930000000
     50      H       23.1080000000     26.6280000000     11.6940000000
     51      H       20.5540000000     27.8100000000     13.2360000000
     52      H       21.0290000000     30.6590000000     12.4980000000
     53      H       18.3400000000     29.4440000000     13.3420000000
     54      H       18.6210000000     31.0120000000     12.5870000000
     55      H       21.6540000000     30.2300000000     14.8600000000
     56      H       19.6470000000     29.5370000000     16.2040000000
     57      H       20.1860000000     32.3500000000     14.1520000000
     58      H       18.9000000000     31.5640000000     15.0690000000
     59      H       19.8750000000     30.8670000000     10.1930000000
     60      H       17.6820000000     27.6350000000     11.9950000000
     61      H       19.6370000000     29.7890000000      7.9730000000
     62      H       17.4450000000     26.5580000000      9.7740000000
     63      H       22.1030000000     33.2510000000     17.1400000000
     64      H       22.6100000000     32.3520000000     15.7050000000
     65      H       18.4140000000     27.6360000000      7.7560000000
     66      H       21.4650000000     33.9490000000     14.2170000000
     67      H       20.4600000000     36.0490000000     15.1010000000
     68      H       19.5660000000     34.6320000000     15.6400000000
     69      H       20.6530000000     35.4630000000     16.7500000000
     70      H       23.8110000000     34.3860000000     14.9050000000
     71      H       22.9450000000     35.8930000000     14.6100000000
     72      H       23.2500000000     35.3620000000     16.2600000000
     73      H       17.1390000000     32.0910000000     16.4190000000
     74      H       19.5520000000     34.5550000000     19.0000000000
     75      H       17.7840000000     36.3110000000     18.9890000000
     76      H       15.6980000000     35.9740000000     17.6840000000
     77      H       15.6270000000     32.6100000000     14.7280000000
     78      H       14.8620000000     31.8420000000     16.1530000000
     79      H       13.8840000000     32.8490000000     15.0460000000
 $END
