 $FMOPRP MODPAR=8205 NAODIR=210 MAXIT=100
     $END
 $FMO
      SCFTYP(1)=RHF
      MODGRD=10
      MODMUL=0
      MAXCAO=5
      MAXBND=4
      NLAYER=1
      NFRAG=4
      ICHARG(1)=   0, 0, 0, 0
      FRGNAM(1)= Frag1, Frag2, Frag3, Frag4
      INDAT(1)= 0
                    1   -15    46   -55     0
                   16   -22    24   -26    28   -29    32    56
                  -60    63   -67    70     0
                   23    27    30   -31    34   -36    39   -45
                   61   -62    68   -69    78   -84     0
                   33    37   -38    71   -77     0
 $END
 $FMOBND
         -15      16  DFTB-C
         -21      23  DFTB-C
         -30      33  DFTB-C
 $END
 $DATA
 FMO calculation : umass_1_ad_33_2d_vm2_vchem
 C1 
 C   6
 N   7
 O   8
 S   16
 H   1
 $END
 $FMOXYZ
      1      C       19.5590000000     26.8650000000      5.9030000000
      2      C       19.3300000000     25.8240000000      6.8260000000
      3      C       20.2290000000     28.0180000000      6.3540000000
      4      C       19.0870000000     26.7060000000      4.4990000000
      5      C       19.7450000000     25.9220000000      8.1470000000
      6      C       20.6570000000     28.1290000000      7.6720000000
      7      O       18.5660000000     25.6490000000      4.1300000000
      8      C       19.2500000000     27.8610000000      3.5260000000
      9      C       20.4170000000     27.0820000000      8.5880000000
     10      N       20.8390000000     27.2200000000      9.9260000000
     11      C       20.6570000000     26.3150000000     10.9570000000
     12      C       21.5210000000     28.4170000000     10.4070000000
     13      O       20.1310000000     25.1950000000     10.9090000000
     14      O       21.1560000000     26.8220000000     12.1210000000
     15      C       21.6650000000     28.1600000000     11.9170000000
     16      C       20.8420000000     29.1670000000     12.7560000000
     17      N       20.1210000000     28.6620000000     13.7990000000
     18      O       20.8690000000     30.3770000000     12.4700000000
     19      C       19.1010000000     29.4900000000     14.4590000000
     20      C       17.6980000000     29.2260000000     13.8360000000
     21      C       19.1140000000     29.2330000000     15.9960000000
     22      C       17.7420000000     29.2230000000     12.3250000000
     23      C       18.2560000000     30.2280000000     16.8130000000
     24      O       18.6110000000     27.9270000000     16.2900000000
     25      C       17.9290000000     30.4180000000     11.6130000000
     26      C       17.6380000000     28.0190000000     11.6150000000
     27      N       18.6630000000     31.6530000000     16.7220000000
     28      C       18.0100000000     30.4070000000     10.2210000000
     29      C       17.7080000000     28.0100000000     10.2200000000
     30      C       18.0710000000     32.5180000000     15.6710000000
     31      S       20.1480000000     32.1160000000     17.3950000000
     32      C       17.8980000000     29.2030000000      9.5210000000
     33      C       16.5290000000     32.5780000000     15.7260000000
     34      O       20.0840000000     33.5650000000     17.6210000000
     35      O       20.3980000000     31.2240000000     18.5310000000
     36      C       21.4090000000     31.8030000000     16.1260000000
     37      C       16.0360000000     33.0500000000     17.0970000000
     38      C       16.0150000000     33.4810000000     14.6000000000
     39      C       21.4660000000     32.6430000000     15.0030000000
     40      C       22.2870000000     30.7190000000     16.2620000000
     41      C       22.4190000000     32.3830000000     13.9990000000
     42      C       23.2290000000     30.4710000000     15.2560000000
     43      C       23.3000000000     31.2890000000     14.1340000000
     44      O       22.5580000000     33.1510000000     12.8920000000
     45      C       21.6820000000     34.2570000000     12.7110000000
     46      H       18.8130000000     24.9310000000      6.4840000000
     47      H       20.4220000000     28.8390000000      5.6690000000
     48      H       19.5510000000     25.1110000000      8.8400000000
     49      H       21.1710000000     29.0300000000      7.9880000000
     50      H       18.8500000000     27.5990000000      2.5510000000
     51      H       18.7300000000     28.7460000000      3.8910000000
     52      H       20.3000000000     28.1250000000      3.4120000000
     53      H       20.9280000000     29.3250000000     10.2140000000
     54      H       22.4960000000     28.5480000000      9.9110000000
     55      H       22.7190000000     28.1740000000     12.2450000000
     56      H       20.0440000000     27.6470000000     13.8910000000
     57      H       19.4010000000     30.5300000000     14.2570000000
     58      H       17.3270000000     28.2640000000     14.2020000000
     59      H       17.0090000000     29.9970000000     14.1980000000
     60      H       20.1690000000     29.2900000000     16.3440000000
     61      H       17.2080000000     30.1540000000     16.5070000000
     62      H       18.3000000000     29.9260000000     17.8670000000
     63      H       19.2110000000     27.2510000000     15.9240000000
     64      H       18.0230000000     31.3560000000     12.1560000000
     65      H       17.4960000000     27.0870000000     12.1570000000
     66      H       18.1620000000     31.3370000000      9.6810000000
     67      H       17.6180000000     27.0710000000      9.6810000000
     68      H       18.4760000000     33.5260000000     15.8150000000
     69      H       18.3860000000     32.1940000000     14.6620000000
     70      H       17.9590000000     29.1950000000      8.4360000000
     71      H       16.1330000000     31.5670000000     15.5470000000
     72      H       14.9490000000     33.0640000000     17.1290000000
     73      H       16.3940000000     32.3890000000     17.8820000000
     74      H       16.3940000000     34.0540000000     17.3130000000
     75      H       16.3550000000     33.1200000000     13.6310000000
     76      H       14.9280000000     33.5030000000     14.5910000000
     77      H       16.3720000000     34.5010000000     14.7230000000
     78      H       20.7820000000     33.4840000000     14.9330000000
     79      H       22.2370000000     30.0860000000     17.1430000000
     80      H       23.9100000000     29.6300000000     15.3540000000
     81      H       24.0280000000     31.0910000000     13.3520000000
     82      H       21.7870000000     34.9790000000     13.5320000000
     83      H       21.9570000000     34.7390000000     11.7700000000
     84      H       20.6360000000     33.9240000000     12.6560000000
 $END
