 $FMOPRP MODPAR=8205 NAODIR=210 MAXIT=100
     $END
 $FMO
      SCFTYP(1)=RHF
      MODGRD=10
      MODMUL=0
      MAXCAO=5
      MAXBND=4
      NLAYER=1
      NFRAG=4
      ICHARG(1)=   0, 0, 0, 0
      FRGNAM(1)= Frag1, Frag2, Frag3, Frag4
      INDAT(1)= 0
                    1   -15    48   -57     0
                   16   -22    24   -26    28   -29    32    58
                  -62    65   -69    72     0
                   23    27    30   -31    34   -36    39   -40
                   43   -47    63   -64    70   -71    74   -75
                   78   -82     0
                   33    37   -38    41   -42    73    76   -77
                    0
 $END
 $FMOBND
         -13      16  DFTB-C
         -21      23  DFTB-C
         -30      33  DFTB-C
 $END
 $DATA
 FMO calculation : umass_1_ad_32_2d_vm2_vchem
 C1 
 C   6
 N   7
 O   8
 S   16
 H   1
 $END
 $FMOXYZ
      1      C       19.8850000000     28.2470000000      6.2270000000
      2      C       20.4620000000     27.1250000000      6.8540000000
      3      C       19.3450000000     28.2030000000      4.8400000000
      4      C       19.8210000000     29.4540000000      6.9510000000
      5      C       20.9580000000     27.1990000000      8.1500000000
      6      O       18.7960000000     29.1940000000      4.3500000000
      7      C       19.4830000000     26.9260000000      4.0300000000
      8      C       20.3140000000     29.5450000000      8.2450000000
      9      C       20.8900000000     28.4150000000      8.8640000000
     10      N       21.3710000000     28.5150000000     10.1850000000
     11      C       21.2630000000     29.7450000000     10.9620000000
     12      C       21.9780000000     27.5180000000     10.9310000000
     13      C       21.8080000000     29.3410000000     12.3440000000
     14      O       22.2500000000     26.3610000000     10.5870000000
     15      O       22.2730000000     27.9810000000     12.1800000000
     16      C       20.7120000000     29.3910000000     13.4350000000
     17      N       20.6180000000     28.3200000000     14.2750000000
     18      O       19.9710000000     30.3880000000     13.5210000000
     19      C       19.3950000000     28.1140000000     15.0690000000
     20      C       18.5190000000     27.0180000000     14.4060000000
     21      C       19.7270000000     27.8020000000     16.5600000000
     22      C       18.3020000000     27.2960000000     12.9350000000
     23      C       18.5020000000     28.0390000000     17.4670000000
     24      O       20.1470000000     26.4480000000     16.7330000000
     25      C       17.6270000000     28.4560000000     12.5230000000
     26      C       18.7980000000     26.4170000000     11.9620000000
     27      N       18.0990000000     29.4710000000     17.4500000000
     28      C       17.4540000000     28.7280000000     11.1650000000
     29      C       18.6130000000     26.6850000000     10.6040000000
     30      C       18.7560000000     30.3740000000     18.4410000000
     31      S       16.5240000000     29.8620000000     16.9310000000
     32      C       17.9440000000     27.8420000000     10.2020000000
     33      C       19.4950000000     31.5090000000     17.7820000000
     34      C       16.7380000000     31.5610000000     16.3660000000
     35      O       16.2320000000     28.9760000000     15.7970000000
     36      O       15.5640000000     29.8730000000     18.0500000000
     37      S       20.4860000000     31.2690000000     16.3530000000
     38      C       19.4960000000     32.8310000000     18.1610000000
     39      C       17.4520000000     31.8260000000     15.1910000000
     40      C       16.2000000000     32.6070000000     17.1330000000
     41      C       20.8880000000     32.9660000000     16.2890000000
     42      C       20.2900000000     33.6600000000     17.3080000000
     43      C       17.6540000000     33.1640000000     14.7950000000
     44      C       16.3990000000     33.9270000000     16.7240000000
     45      O       18.3650000000     33.3600000000     13.6580000000
     46      C       17.1240000000     34.2170000000     15.5690000000
     47      C       18.6460000000     34.6900000000     13.2440000000
     48      H       20.5210000000     26.1780000000      6.3250000000
     49      H       19.3790000000     30.3250000000      6.4750000000
     50      H       21.3920000000     26.3210000000      8.6140000000
     51      H       19.0450000000     27.0500000000      3.0430000000
     52      H       20.5320000000     26.6560000000      3.9130000000
     53      H       18.9870000000     26.0940000000      4.5290000000
     54      H       20.2520000000     30.4900000000      8.7750000000
     55      H       20.2180000000     30.0890000000     11.0290000000
     56      H       21.8480000000     30.5590000000     10.5040000000
     57      H       22.6710000000     29.9600000000     12.6490000000
     58      H       21.1830000000     27.4940000000     14.0620000000
     59      H       18.8570000000     29.0750000000     15.0320000000
     60      H       18.9980000000     26.0440000000     14.5380000000
     61      H       17.5580000000     26.9840000000     14.9310000000
     62      H       20.5510000000     28.4790000000     16.8810000000
     63      H       17.6600000000     27.4270000000     17.1270000000
     64      H       18.7360000000     27.7330000000     18.4960000000
     65      H       20.9340000000     26.2780000000     16.1840000000
     66      H       17.2450000000     29.1470000000     13.2690000000
     67      H       19.3280000000     25.5180000000     12.2690000000
     68      H       16.9350000000     29.6320000000     10.8570000000
     69      H       18.9990000000     25.9930000000      9.8590000000
     70      H       18.0060000000     30.7810000000     19.1370000000
     71      H       19.4410000000     29.7570000000     19.0400000000
     72      H       17.8050000000     28.0530000000      9.1450000000
     73      H       18.9340000000     33.2040000000     19.0100000000
     74      H       17.8790000000     31.0200000000     14.5980000000
     75      H       15.6460000000     32.3840000000     18.0400000000
     76      H       21.5220000000     33.3680000000     15.5100000000
     77      H       20.3990000000     34.7300000000     17.4480000000
     78      H       15.9920000000     34.7390000000     17.3190000000
     79      H       17.2760000000     35.2520000000     15.2820000000
     80      H       19.2410000000     34.6280000000     12.3300000000
     81      H       17.7200000000     35.2430000000     13.0350000000
     82      H       19.2200000000     35.2270000000     14.0120000000
 $END
