 $FMOPRP MODPAR=8205 NAODIR=210 MAXIT=100
     $END
 $FMO
      SCFTYP(1)=RHF
      MODGRD=10
      MODMUL=0
      MAXCAO=5
      MAXBND=4
      NLAYER=1
      NFRAG=4
      ICHARG(1)=   0, 0, 0, 0
      FRGNAM(1)= Frag1, Frag2, Frag3, Frag4
      INDAT(1)= 0
                    1   -16    46   -52     0
                   17   -23    25    27   -28    31   -32    37
                   53   -58    61   -62    65   -66    68     0
                   24    26    29   -30    33   -35    38   -39
                   42   -45    59   -60    63   -64    69   -70
                   77   -80     0
                   36    40   -41    67    71   -76     0
 $END
 $FMOBND
         -14      17  DFTB-C
         -21      24  DFTB-C
         -30      36  DFTB-C
 $END
 $DATA
 FMO calculation : umass_1_ad_80_2d_vm2_vchem
 C1 
 C   6
 N   7
 O   8
 S   16
 F   9
 H   1
 $END
 $FMOXYZ
      1      C       23.1730000000     27.1610000000      6.8910000000
      2      C       23.7040000000     27.7080000000      8.0610000000
      3      C       22.0120000000     26.3770000000      6.9670000000
      4      C       23.0920000000     27.4890000000      9.2920000000
      5      C       21.4040000000     25.7600000000      5.7290000000
      6      C       21.3840000000     26.1460000000      8.2000000000
      7      C       21.9200000000     26.7070000000      9.3740000000
      8      F       20.1150000000     26.1890000000      5.5180000000
      9      F       22.0970000000     26.0420000000      4.5890000000
     10      F       21.3340000000     24.3910000000      5.8150000000
     11      N       21.2980000000     26.5060000000     10.6240000000
     12      C       21.8190000000     27.0820000000     11.8590000000
     13      C       20.1580000000     25.7620000000     10.8750000000
     14      C       20.7590000000     26.6890000000     12.9050000000
     15      O       19.8440000000     25.8180000000     12.2000000000
     16      O       19.4750000000     25.1150000000     10.0700000000
     17      C       19.9940000000     27.9220000000     13.4430000000
     18      O       20.6330000000     28.9320000000     13.8060000000
     19      N       18.6390000000     27.8400000000     13.4900000000
     20      C       17.8090000000     29.0450000000     13.6350000000
     21      C       16.7380000000     28.8250000000     14.7330000000
     22      C       17.1970000000     29.4120000000     12.2560000000
     23      O       15.7950000000     27.8540000000     14.2580000000
     24      C       15.9750000000     30.1170000000     15.1130000000
     25      C       18.2340000000     29.4090000000     11.1530000000
     26      N       16.8570000000     31.3040000000     15.3190000000
     27      C       19.3890000000     30.2020000000     11.2430000000
     28      C       18.0630000000     28.5900000000     10.0270000000
     29      S       17.9020000000     31.3290000000     16.6920000000
     30      C       16.1860000000     32.6070000000     15.0250000000
     31      C       20.3430000000     30.1830000000     10.2250000000
     32      C       19.0150000000     28.5770000000      9.0060000000
     33      O       17.2570000000     31.9920000000     17.8410000000
     34      C       19.2190000000     32.3820000000     16.0900000000
     35      O       18.3940000000     29.9600000000     16.8870000000
     36      C       16.2050000000     32.9420000000     13.5170000000
     37      C       20.1560000000     29.3760000000      9.1010000000
     38      C       19.2830000000     33.7290000000     16.4930000000
     39      C       20.1660000000     31.8850000000     15.1710000000
     40      C       15.3830000000     34.2070000000     13.2490000000
     41      C       17.6420000000     33.0950000000     13.0060000000
     42      C       20.2680000000     34.5690000000     15.9930000000
     43      C       21.1520000000     32.7210000000     14.6650000000
     44      C       21.2140000000     34.0780000000     15.0610000000
     45      N       22.2080000000     34.9000000000     14.5790000000
     46      H       23.6490000000     27.3330000000      5.9320000000
     47      H       24.6040000000     28.3140000000      8.0110000000
     48      H       23.5200000000     27.9290000000     10.1860000000
     49      H       20.4860000000     25.5380000000      8.2420000000
     50      H       21.9200000000     28.1760000000     11.7840000000
     51      H       22.8130000000     26.6740000000     12.0990000000
     52      H       21.1920000000     26.1160000000     13.7440000000
     53      H       18.1820000000     27.0120000000     13.1040000000
     54      H       18.4890000000     29.8480000000     13.9600000000
     55      H       17.2430000000     28.4080000000     15.6270000000
     56      H       16.4030000000     28.7000000000     12.0180000000
     57      H       16.7270000000     30.3990000000     12.3320000000
     58      H       15.1350000000     27.6820000000     14.9560000000
     59      H       15.2890000000     30.3730000000     14.2980000000
     60      H       15.3510000000     29.9270000000     16.0030000000
     61      H       19.5480000000     30.8280000000     12.1160000000
     62      H       17.1790000000     27.9620000000      9.9510000000
     63      H       15.1490000000     32.5840000000     15.3940000000
     64      H       16.7070000000     33.3970000000     15.5770000000
     65      H       21.2340000000     30.8000000000     10.3100000000
     66      H       18.8680000000     27.9390000000      8.1390000000
     67      H       15.7330000000     32.1070000000     12.9750000000
     68      H       20.8960000000     29.3680000000      8.3060000000
     69      H       18.5540000000     34.1090000000     17.2050000000
     70      H       20.1310000000     30.8430000000     14.8560000000
     71      H       15.3670000000     34.4380000000     12.1870000000
     72      H       14.3560000000     34.0790000000     13.5840000000
     73      H       15.8050000000     35.0620000000     13.7730000000
     74      H       18.2200000000     32.1970000000     13.2160000000
     75      H       17.6550000000     33.2660000000     11.9320000000
     76      H       18.1390000000     33.9330000000     13.4910000000
     77      H       20.3120000000     35.6080000000     16.3080000000
     78      H       21.8770000000     32.3350000000     13.9540000000
     79      H       22.7520000000     34.5920000000     13.7790000000
     80      H       22.1270000000     35.9010000000     14.7260000000
 $END
