 $FMOPRP MODPAR=8205 NAODIR=210 MAXIT=100
     $END
 $FMO
      SCFTYP(1)=RHF
      MODGRD=10
      MODMUL=0
      MAXCAO=5
      MAXBND=4
      NLAYER=1
      NFRAG=4
      ICHARG(1)=   0, 0, 0, 0
      FRGNAM(1)= Frag1, Frag2, Frag3, Frag4
      INDAT(1)= 0
                    1   -15    49   -58     0
                   16   -22    24    26   -27    30   -31    36
                   59   -64    67   -68    71   -72    74     0
                   23    25    28   -29    33   -35    39   -48
                   65   -66    69   -70    81   -84     0
                   32    37   -38    73    75   -80     0
 $END
 $FMOBND
         -15      16  DFTB-C
         -20      23  DFTB-C
         -28      32  DFTB-C
 $END
 $DATA
 FMO calculation : umass_1_kb_69_2d_vm2_vchem
 C1 
 C   6
 N   7
 O   8
 S   16
 F   9
 H   1
 $END
 $FMOXYZ
      1      C       21.8940000000     24.5790000000      6.6550000000
      2      C       21.5410000000     25.9080000000      6.3620000000
      3      C       22.1790000000     24.2110000000      7.9710000000
      4      C       21.2200000000     26.3660000000      4.9710000000
      5      C       21.4780000000     26.8500000000      7.4020000000
      6      C       22.1170000000     25.1420000000      9.0060000000
      7      C       21.2840000000     25.3670000000      3.8300000000
      8      O       20.9060000000     27.5380000000      4.7610000000
      9      C       21.7600000000     26.4770000000      8.7270000000
     10      N       21.6650000000     27.4430000000      9.7590000000
     11      C       21.8940000000     27.2470000000     11.1050000000
     12      C       21.2560000000     28.8180000000      9.4960000000
     13      O       21.6540000000     28.4040000000     11.7950000000
     14      O       22.2600000000     26.2140000000     11.6820000000
     15      C       21.2000000000     29.4460000000     10.9030000000
     16      C       19.7700000000     29.8860000000     11.2900000000
     17      O       19.1680000000     30.7310000000     10.5970000000
     18      N       19.2260000000     29.3160000000     12.4000000000
     19      C       17.7860000000     29.4130000000     12.6910000000
     20      C       17.5730000000     29.9360000000     14.1330000000
     21      C       17.1230000000     28.0230000000     12.4830000000
     22      O       16.1730000000     29.9550000000     14.4040000000
     23      C       18.1910000000     31.3570000000     14.3360000000
     24      C       17.5990000000     27.3580000000     11.2090000000
     25      N       19.0340000000     31.4150000000     15.5640000000
     26      C       18.3190000000     26.1560000000     11.2650000000
     27      C       17.3670000000     27.9520000000      9.9580000000
     28      C       20.3790000000     32.0360000000     15.4100000000
     29      S       18.2220000000     31.6330000000     17.0330000000
     30      C       18.7800000000     25.5490000000     10.0950000000
     31      C       17.8330000000     27.3470000000      8.7910000000
     32      C       21.3090000000     31.1760000000     14.5250000000
     33      C       17.7590000000     33.3840000000     17.0960000000
     34      O       16.9830000000     30.8440000000     16.9430000000
     35      O       19.1700000000     31.3630000000     18.1120000000
     36      C       18.5350000000     26.1410000000      8.8550000000
     37      C       22.6690000000     31.8630000000     14.3670000000
     38      C       21.4630000000     29.7570000000     15.0830000000
     39      C       16.5280000000     33.8050000000     16.5700000000
     40      C       18.6610000000     34.3260000000     17.6180000000
     41      C       16.1860000000     35.1580000000     16.5650000000
     42      C       18.3320000000     35.6780000000     17.6220000000
     43      C       17.0980000000     36.0830000000     17.0930000000
     44      O       16.8470000000     37.4620000000     17.1370000000
     45      C       15.6920000000     38.0030000000     16.6350000000
     46      F       15.7410000000     39.3380000000     16.8030000000
     47      F       15.5450000000     37.7420000000     15.3030000000
     48      F       14.5850000000     37.5280000000     17.2760000000
     49      H       21.9460000000     23.8370000000      5.8640000000
     50      H       22.4520000000     23.1840000000      8.1950000000
     51      H       21.1980000000     27.8690000000      7.1500000000
     52      H       22.3360000000     24.8400000000     10.0240000000
     53      H       20.5630000000     24.5650000000      3.9850000000
     54      H       21.0630000000     25.8540000000      2.8840000000
     55      H       22.2700000000     24.9110000000      3.7680000000
     56      H       21.9780000000     29.3320000000      8.8420000000
     57      H       20.2760000000     28.8550000000      8.9940000000
     58      H       21.8920000000     30.3020000000     11.0000000000
     59      H       19.7470000000     28.5670000000     12.8620000000
     60      H       17.3730000000     30.1320000000     11.9670000000
     61      H       18.0660000000     29.2300000000     14.8380000000
     62      H       17.3570000000     27.3820000000     13.3390000000
     63      H       16.0380000000     28.1580000000     12.4720000000
     64      H       16.0520000000     30.2030000000     15.3410000000
     65      H       18.8290000000     31.6250000000     13.4890000000
     66      H       17.3890000000     32.1100000000     14.3790000000
     67      H       18.5150000000     25.6940000000     12.2290000000
     68      H       16.8230000000     28.8910000000      9.9010000000
     69      H       20.2860000000     33.0480000000     14.9820000000
     70      H       20.8150000000     32.1410000000     16.4100000000
     71      H       19.3340000000     24.6160000000     10.1530000000
     72      H       17.6480000000     27.8150000000      7.8280000000
     73      H       20.8520000000     31.1010000000     13.5250000000
     74      H       18.8910000000     25.6660000000      7.9440000000
     75      H       22.5520000000     32.8600000000     13.9480000000
     76      H       23.1720000000     31.9550000000     15.3270000000
     77      H       23.3100000000     31.2880000000     13.7040000000
     78      H       21.9430000000     29.7720000000     16.0590000000
     79      H       20.4920000000     29.2770000000     15.1930000000
     80      H       22.0690000000     29.1480000000     14.4160000000
     81      H       15.8290000000     33.0730000000     16.1750000000
     82      H       19.6120000000     33.9960000000     18.0270000000
     83      H       15.2290000000     35.4630000000     16.1560000000
     84      H       19.0150000000     36.4190000000     18.0260000000
 $END
