 $FMOPRP MODPAR=8205 NAODIR=210 MAXIT=100
     $END
 $FMO
      SCFTYP(1)=RHF
      MODGRD=10
      MODMUL=0
      MAXCAO=5
      MAXBND=4
      NLAYER=1
      NFRAG=4
      ICHARG(1)=   0, 0, 0, 0
      FRGNAM(1)= Frag1, Frag2, Frag3, Frag4
      INDAT(1)= 0
                    1   -13    44   -50     0
                   14   -21    23   -24    26   -27    30    51
                  -56    59   -62    65     0
                   22    25    28   -29    32   -34    37   -43
                   57   -58    63   -64    73   -79     0
                   31    35   -36    66   -72     0
 $END
 $FMOBND
         -13      14  DFTB-C
         -19      22  DFTB-C
         -28      31  DFTB-C
 $END
 $DATA
 FMO calculation : umass_1_kk_99_2d_vm2_vchem
 C1 
 C   6
 N   7
 O   8
 S   16
 F   9
 H   1
 $END
 $FMOXYZ
      1      C       22.8030000000     28.5930000000      6.6460000000
      2      C       23.3620000000     29.0690000000      7.8350000000
      3      C       21.8380000000     27.5860000000      6.7390000000
      4      C       22.9680000000     28.5560000000      9.0710000000
      5      F       21.2850000000     27.1110000000      5.6040000000
      6      C       21.4160000000     27.0450000000      7.9540000000
      7      C       21.9890000000     27.5420000000      9.1420000000
      8      N       21.5930000000     27.0420000000     10.4020000000
      9      C       20.6630000000     26.0500000000     10.6480000000
     10      C       22.1530000000     27.5460000000     11.6500000000
     11      O       20.5310000000     25.8530000000     11.9930000000
     12      O       20.0080000000     25.3900000000      9.8290000000
     13      C       21.3670000000     26.7760000000     12.7280000000
     14      C       20.4830000000     27.7140000000     13.5830000000
     15      O       20.9640000000     28.7730000000     14.0350000000
     16      N       19.1990000000     27.3220000000     13.8080000000
     17      C       18.1780000000     28.2890000000     14.2480000000
     18      C       17.2790000000     28.6560000000     13.0390000000
     19      C       17.3780000000     27.7270000000     15.4620000000
     20      C       18.1010000000     29.0570000000     11.8320000000
     21      O       16.5880000000     26.5990000000     15.0610000000
     22      C       16.4000000000     28.7430000000     16.0830000000
     23      C       19.0030000000     30.1310000000     11.9020000000
     24      C       17.9960000000     28.3400000000     10.6320000000
     25      N       16.9410000000     30.1270000000     16.2260000000
     26      C       19.7750000000     30.4820000000     10.7950000000
     27      C       18.7640000000     28.6960000000      9.5220000000
     28      C       15.8770000000     31.1800000000     16.2250000000
     29      S       18.2340000000     30.4110000000     17.3280000000
     30      C       19.6540000000     29.7690000000      9.5990000000
     31      C       15.4620000000     31.5840000000     14.7940000000
     32      C       19.0810000000     31.7600000000     16.4960000000
     33      O       17.7320000000     30.9030000000     18.6240000000
     34      O       19.0810000000     29.2140000000     17.3300000000
     35      C       14.2490000000     32.5180000000     14.8420000000
     36      C       16.6300000000     32.2310000000     14.0400000000
     37      C       19.9940000000     31.4860000000     15.4620000000
     38      C       18.7890000000     33.0960000000     16.8320000000
     39      C       20.5970000000     32.5240000000     14.7570000000
     40      C       19.3880000000     34.1390000000     16.1370000000
     41      C       20.2890000000     33.8610000000     15.0860000000
     42      O       20.8190000000     34.9260000000     14.4440000000
     43      C       21.7360000000     34.7040000000     13.3760000000
     44      H       23.1040000000     28.9880000000      5.6820000000
     45      H       24.1140000000     29.8520000000      7.8010000000
     46      H       23.4190000000     28.9470000000      9.9770000000
     47      H       20.6590000000     26.2690000000      7.9810000000
     48      H       22.0070000000     28.6340000000     11.7490000000
     49      H       23.2350000000     27.3530000000     11.7090000000
     50      H       22.0300000000     26.1840000000     13.3830000000
     51      H       18.8620000000     26.4930000000     13.3120000000
     52      H       18.7300000000     29.1820000000     14.5760000000
     53      H       16.6460000000     27.7990000000     12.7900000000
     54      H       16.6100000000     29.4710000000     13.3330000000
     55      H       18.1100000000     27.3850000000     16.2200000000
     56      H       17.1730000000     25.8610000000     14.8100000000
     57      H       15.5220000000     28.8200000000     15.4320000000
     58      H       16.0410000000     28.3580000000     17.0520000000
     59      H       19.1100000000     30.6880000000     12.8300000000
     60      H       17.3090000000     27.4990000000     10.5700000000
     61      H       20.4710000000     31.3130000000     10.8640000000
     62      H       18.6720000000     28.1320000000      8.5980000000
     63      H       15.0010000000     30.8180000000     16.7840000000
     64      H       16.2560000000     32.0600000000     16.7570000000
     65      H       20.2520000000     30.0460000000      8.7360000000
     66      H       15.1680000000     30.6700000000     14.2540000000
     67      H       13.9270000000     32.7830000000     13.8380000000
     68      H       13.4160000000     32.0430000000     15.3550000000
     69      H       14.4900000000     33.4380000000     15.3710000000
     70      H       17.4980000000     31.5750000000     14.0360000000
     71      H       16.3570000000     32.4380000000     13.0080000000
     72      H       16.9240000000     33.1680000000     14.5080000000
     73      H       20.2390000000     30.4560000000     15.2060000000
     74      H       18.0940000000     33.3080000000     17.6400000000
     75      H       21.2960000000     32.2840000000     13.9630000000
     76      H       19.1620000000     35.1690000000     16.3940000000
     77      H       22.0300000000     35.6840000000     12.9930000000
     78      H       22.6270000000     34.1700000000     13.7310000000
     79      H       21.2650000000     34.1250000000     12.5710000000
 $END
