 $FMOPRP MODPAR=8205 NAODIR=210 MAXIT=100
     $END
 $FMO
      SCFTYP(1)=RHF
      MODGRD=10
      MODMUL=0
      MAXCAO=5
      MAXBND=4
      NLAYER=1
      NFRAG=4
      ICHARG(1)=   0, 0, 0, 0
      FRGNAM(1)= Frag1, Frag2, Frag3, Frag4
      INDAT(1)= 0
                    1   -15    46   -55     0
                   16   -22    24    26   -27    30   -31    36
                   56   -61    64   -65    68   -69    71     0
                   23    25    28   -29    32   -34    37   -38
                   41   -45    62   -63    66   -67    72   -73
                   80   -84     0
                   35    39   -40    70    74   -79     0
 $END
 $FMOBND
         -13      16  DFTB-C
         -20      23  DFTB-C
         -29      35  DFTB-C
 $END
 $DATA
 FMO calculation : umass_1_kb_19_2d_vm2_vchem
 C1 
 C   6
 N   7
 O   8
 S   16
 H   1
 $END
 $FMOXYZ
      1      C       18.7280000000     24.6260000000      7.1190000000
      2      C       17.9960000000     23.7550000000      6.1570000000
      3      C       18.7160000000     24.2960000000      8.4890000000
      4      C       19.4400000000     25.7730000000      6.7170000000
      5      O       17.3860000000     22.7580000000      6.5530000000
      6      C       18.0090000000     24.1070000000      4.6790000000
      7      C       19.3820000000     25.0720000000      9.4280000000
      8      C       20.1120000000     26.5600000000      7.6440000000
      9      C       20.0880000000     26.2230000000      9.0140000000
     10      N       20.7630000000     27.0410000000      9.9430000000
     11      C       21.4990000000     28.2340000000      9.5370000000
     12      C       20.8150000000     26.8780000000     11.3160000000
     13      C       21.9860000000     28.8250000000     10.8720000000
     14      O       20.3120000000     25.9800000000     12.0020000000
     15      O       21.5390000000     27.8890000000     11.8810000000
     16      C       21.3870000000     30.2220000000     11.1560000000
     17      O       21.4050000000     31.1030000000     10.2720000000
     18      N       20.8720000000     30.4220000000     12.3990000000
     19      C       20.0060000000     31.5720000000     12.7020000000
     20      C       20.4250000000     32.1960000000     14.0730000000
     21      C       18.5120000000     31.1210000000     12.7120000000
     22      O       20.0940000000     31.3070000000     15.1370000000
     23      C       19.7380000000     33.5610000000     14.3210000000
     24      C       18.2040000000     30.0880000000     11.6520000000
     25      N       19.7630000000     33.9850000000     15.7390000000
     26      C       17.8960000000     28.7700000000     12.0190000000
     27      C       18.2440000000     30.4210000000     10.2890000000
     28      S       18.3090000000     33.9070000000     16.6020000000
     29      C       21.0490000000     33.8570000000     16.4650000000
     30      C       17.6160000000     27.8080000000     11.0460000000
     31      C       17.9680000000     29.4580000000      9.3180000000
     32      O       18.6080000000     34.3310000000     17.9770000000
     33      O       17.3190000000     34.6770000000     15.8310000000
     34      C       17.7430000000     32.1950000000     16.6230000000
     35      C       22.1510000000     34.7400000000     15.8360000000
     36      C       17.6460000000     28.1520000000      9.6940000000
     37      C       16.7910000000     31.7680000000     15.6840000000
     38      C       18.2930000000     31.2670000000     17.5280000000
     39      C       21.7360000000     36.2140000000     15.8020000000
     40      C       23.4660000000     34.5470000000     16.5980000000
     41      C       16.3940000000     30.4340000000     15.6280000000
     42      C       17.9050000000     29.9350000000     17.4830000000
     43      C       16.9640000000     29.5050000000     16.5220000000
     44      O       16.6620000000     28.1840000000     16.5170000000
     45      C       15.7730000000     27.6810000000     15.5250000000
     46      H       18.1720000000     23.4090000000      8.8050000000
     47      H       19.4730000000     26.0530000000      5.6680000000
     48      H       17.5820000000     25.0960000000      4.5150000000
     49      H       19.0280000000     24.1240000000      4.2960000000
     50      H       17.4360000000     23.3820000000      4.1100000000
     51      H       19.3570000000     24.7990000000     10.4780000000
     52      H       20.6530000000     27.4360000000      7.3020000000
     53      H       20.8510000000     28.9420000000      8.9970000000
     54      H       22.3350000000     27.9770000000      8.8680000000
     55      H       23.0880000000     28.8750000000     10.9240000000
     56      H       20.8140000000     29.6190000000     13.0280000000
     57      H       20.1720000000     32.3020000000     11.8950000000
     58      H       21.5270000000     32.3420000000     14.0590000000
     59      H       18.2830000000     30.7110000000     13.7000000000
     60      H       17.8800000000     32.0040000000     12.5760000000
     61      H       20.5980000000     30.4780000000     15.0510000000
     62      H       20.2300000000     34.3260000000     13.7000000000
     63      H       18.6890000000     33.5290000000     14.0040000000
     64      H       17.8740000000     28.4980000000     13.0720000000
     65      H       18.4960000000     31.4350000000      9.9920000000
     66      H       20.8780000000     34.1660000000     17.5020000000
     67      H       21.3840000000     32.8060000000     16.4880000000
     68      H       17.3770000000     26.7910000000     11.3440000000
     69      H       18.0020000000     29.7270000000      8.2660000000
     70      H       22.3100000000     34.4050000000     14.7990000000
     71      H       17.4200000000     27.4070000000      8.9360000000
     72      H       16.3620000000     32.4880000000     14.9910000000
     73      H       19.0320000000     31.5960000000     18.2540000000
     74      H       22.5150000000     36.8230000000     15.3510000000
     75      H       20.8250000000     36.3450000000     15.2230000000
     76      H       21.5530000000     36.5900000000     16.8070000000
     77      H       24.2640000000     35.1280000000     16.1430000000
     78      H       23.3670000000     34.8670000000     17.6330000000
     79      H       23.7630000000     33.5000000000     16.5960000000
     80      H       15.6580000000     30.1290000000     14.8910000000
     81      H       18.3320000000     29.2130000000     18.1720000000
     82      H       15.6980000000     26.6020000000     15.6740000000
     83      H       14.7770000000     28.1320000000     15.6230000000
     84      H       16.1600000000     27.8810000000     14.5160000000
 $END
