 $FMOPRP MODPAR=8205 NAODIR=210 MAXIT=100
     $END
 $FMO
      SCFTYP(1)=RHF
      MODGRD=10
      MODMUL=0
      MAXCAO=5
      MAXBND=4
      NLAYER=1
      NFRAG=4
      ICHARG(1)=   0, 0, 0, 0
      FRGNAM(1)= Frag1, Frag2, Frag3, Frag4
      INDAT(1)= 0
                    1   -12    42   -49     0
                   13   -19    21   -23    25   -26    29    50
                  -54    57   -61    64     0
                   20    24    27   -28    31   -33    36   -41
                   55   -56    62   -63    72   -77     0
                   30    34   -35    65   -71     0
 $END
 $FMOBND
         -10      13  DFTB-C
         -18      20  DFTB-C
         -27      30  DFTB-C
 $END
 $DATA
 FMO calculation : umass_1_ac_67_2d_vm2_vchem
 C1 
 C   6
 N   7
 O   8
 S   16
 H   1
 $END
 $FMOXYZ
      1      C       20.8430000000     22.9550000000      9.0020000000
      2      C       20.1670000000     23.1080000000     10.2140000000
      3      C       21.7390000000     23.9410000000      8.5850000000
      4      C       20.3760000000     24.2330000000     11.0100000000
      5      C       21.9620000000     25.0730000000      9.3690000000
      6      C       21.2780000000     25.2290000000     10.5900000000
      7      N       21.4960000000     26.3960000000     11.3690000000
      8      C       22.3590000000     27.4800000000     10.9140000000
      9      C       20.9360000000     26.6950000000     12.5910000000
     10      C       22.2110000000     28.5420000000     12.0210000000
     11      O       20.1670000000     26.0110000000     13.2830000000
     12      O       21.3490000000     27.9330000000     13.0070000000
     13      C       21.5770000000     29.8540000000     11.5120000000
     14      N       20.4840000000     30.3120000000     12.1890000000
     15      O       22.0730000000     30.4560000000     10.5400000000
     16      C       19.6220000000     31.3590000000     11.6200000000
     17      C       18.2920000000     30.7190000000     11.1190000000
     18      C       19.3220000000     32.4920000000     12.6570000000
     19      C       18.5190000000     29.3950000000     10.4220000000
     20      C       20.5680000000     32.9470000000     13.4610000000
     21      O       18.7910000000     33.6260000000     11.9690000000
     22      C       18.0450000000     28.2080000000     10.9990000000
     23      C       19.2360000000     29.3280000000      9.2180000000
     24      N       20.2470000000     33.3490000000     14.8560000000
     25      C       18.2660000000     26.9790000000     10.3750000000
     26      C       19.4590000000     28.0980000000      8.5980000000
     27      C       19.2050000000     34.3970000000     15.0080000000
     28      S       20.3800000000     32.1560000000     16.0600000000
     29      C       18.9700000000     26.9220000000      9.1700000000
     30      C       19.6470000000     35.7430000000     14.3930000000
     31      C       19.2210000000     30.8420000000     15.6280000000
     32      O       21.7320000000     31.5930000000     15.9580000000
     33      O       19.9730000000     32.7860000000     17.3230000000
     34      C       18.5340000000     36.7810000000     14.5670000000
     35      C       20.9650000000     36.2300000000     15.0040000000
     36      C       17.8370000000     31.1000000000     15.5510000000
     37      C       19.7040000000     29.5680000000     15.2760000000
     38      C       16.9590000000     30.1150000000     15.1210000000
     39      C       18.8330000000     28.5720000000     14.8480000000
     40      C       17.4460000000     28.8360000000     14.7560000000
     41      N       16.5870000000     27.8740000000     14.2730000000
     42      H       20.6720000000     22.0760000000      8.3870000000
     43      H       19.4670000000     22.3460000000     10.5450000000
     44      H       22.2690000000     23.8330000000      7.6430000000
     45      H       19.8400000000     24.3470000000     11.9450000000
     46      H       22.6590000000     25.8310000000      9.0260000000
     47      H       22.0340000000     27.8670000000      9.9350000000
     48      H       23.4010000000     27.1430000000     10.8030000000
     49      H       23.1760000000     28.7660000000     12.5090000000
     50      H       20.0720000000     29.6930000000     12.8910000000
     51      H       20.1780000000     31.7790000000     10.7690000000
     52      H       17.6250000000     30.5680000000     11.9740000000
     53      H       17.7960000000     31.4300000000     10.4500000000
     54      H       18.5500000000     32.1140000000     13.3630000000
     55      H       21.3110000000     32.1420000000     13.5100000000
     56      H       21.0400000000     33.7950000000     12.9500000000
     57      H       17.9090000000     33.4140000000     11.6130000000
     58      H       17.4980000000     28.2490000000     11.9380000000
     59      H       19.6200000000     30.2400000000      8.7690000000
     60      H       17.8940000000     26.0670000000     10.8330000000
     61      H       20.0150000000     28.0560000000      7.6650000000
     62      H       18.2580000000     34.0750000000     14.5410000000
     63      H       19.0130000000     34.5250000000     16.0790000000
     64      H       19.1390000000     25.9660000000      8.6830000000
     65      H       19.8020000000     35.5880000000     13.3160000000
     66      H       18.8110000000     37.7240000000     14.1020000000
     67      H       17.6100000000     36.4350000000     14.1090000000
     68      H       18.3370000000     36.9710000000     15.6200000000
     69      H       21.2830000000     37.1610000000     14.5410000000
     70      H       20.8580000000     36.4040000000     16.0730000000
     71      H       21.7520000000     35.4930000000     14.8610000000
     72      H       17.4560000000     32.0790000000     15.8300000000
     73      H       20.7700000000     29.3650000000     15.3410000000
     74      H       15.8950000000     30.3220000000     15.0590000000
     75      H       19.2140000000     27.5920000000     14.5710000000
     76      H       15.5880000000     28.0090000000     14.3930000000
     77      H       16.9170000000     26.9160000000     14.2120000000
 $END
