 $FMOPRP MODPAR=8205 NAODIR=210 MAXIT=100
     $END
 $FMO
      SCFTYP(1)=RHF
      MODGRD=10
      MODMUL=0
      MAXCAO=5
      MAXBND=4
      NLAYER=1
      NFRAG=4
      ICHARG(1)=   0, 0, 0, 0
      FRGNAM(1)= Frag1, Frag2, Frag3, Frag4
      INDAT(1)= 0
                    1   -14    45   -50     0
                   15   -20    22   -23    25   -26    29   -30
                   35    51   -55    58   -60    63   -64    66
                    0
                   21    24    27   -28    32   -34    38   -44
                   56   -57    61   -62    73   -79     0
                   31    36   -37    65    67   -72     0
 $END
 $FMOBND
         -12      15  DFTB-C
         -19      21  DFTB-C
         -27      31  DFTB-C
 $END
 $DATA
 FMO calculation : umass_1_ad_70_2d_vm2_vchem
 C1 
 C   6
 N   7
 O   8
 S   16
 F   9
 H   1
 $END
 $FMOXYZ
      1      C       20.6030000000     25.2600000000      6.0490000000
      2      C       20.4490000000     24.3790000000      7.1310000000
      3      C       21.2060000000     26.5020000000      6.2380000000
      4      F       20.1580000000     24.8960000000      4.8200000000
      5      C       20.8960000000     24.7180000000      8.4080000000
      6      F       19.8590000000     23.1820000000      6.9320000000
      7      C       21.6580000000     26.8590000000      7.5130000000
      8      C       21.5090000000     25.9760000000      8.6030000000
      9      N       21.9630000000     26.3670000000      9.8830000000
     10      C       22.5780000000     27.6670000000     10.1280000000
     11      C       21.8960000000     25.6300000000     11.0490000000
     12      C       22.7720000000     27.6820000000     11.6550000000
     13      O       21.4750000000     24.4750000000     11.2040000000
     14      O       22.3890000000     26.3570000000     12.0940000000
     15      C       21.8770000000     28.7400000000     12.3420000000
     16      O       21.7910000000     29.8870000000     11.8550000000
     17      N       21.2190000000     28.3620000000     13.4690000000
     18      C       20.0980000000     29.1630000000     13.9900000000
     19      C       20.3260000000     29.5230000000     15.4800000000
     20      C       18.7700000000     28.4000000000     13.7390000000
     21      C       19.4200000000     30.6900000000     15.9500000000
     22      O       20.0730000000     28.3710000000     16.2890000000
     23      C       18.6660000000     27.9710000000     12.2920000000
     24      N       19.6210000000     31.9240000000     15.1390000000
     25      C       18.5640000000     28.9320000000     11.2730000000
     26      C       18.7220000000     26.6150000000     11.9430000000
     27      C       20.5360000000     32.9380000000     15.7330000000
     28      S       18.2560000000     32.5340000000     14.3090000000
     29      C       18.5190000000     28.5420000000      9.9340000000
     30      C       18.6670000000     26.2250000000     10.6030000000
     31      C       22.0250000000     32.5410000000     15.6210000000
     32      O       18.7370000000     33.6140000000     13.4420000000
     33      C       17.1720000000     33.2350000000     15.5680000000
     34      O       17.5850000000     31.3800000000     13.7010000000
     35      C       18.5690000000     27.1870000000      9.5950000000
     36      C       22.4350000000     32.3120000000     14.1620000000
     37      C       22.8950000000     33.6190000000     16.2770000000
     38      C       16.2080000000     32.4290000000     16.1980000000
     39      C       17.3360000000     34.5730000000     15.9770000000
     40      C       15.4080000000     32.9410000000     17.2150000000
     41      C       16.5440000000     35.0960000000     16.9900000000
     42      C       15.5740000000     34.2840000000     17.6200000000
     43      O       14.8430000000     34.8630000000     18.5980000000
     44      C       13.8520000000     34.0940000000     19.2740000000
     45      H       21.3230000000     27.1850000000      5.4030000000
     46      H       20.7680000000     24.0260000000      9.2340000000
     47      H       22.1260000000     27.8270000000      7.6520000000
     48      H       21.9270000000     28.4930000000      9.8020000000
     49      H       23.5310000000     27.7650000000      9.5850000000
     50      H       23.8270000000     27.8400000000     11.9400000000
     51      H       21.2660000000     27.3840000000     13.7590000000
     52      H       20.0990000000     30.0960000000     13.4040000000
     53      H       21.3920000000     29.8140000000     15.6030000000
     54      H       18.7280000000     27.5280000000     14.3960000000
     55      H       17.9370000000     29.0570000000     14.0060000000
     56      H       18.3700000000     30.3810000000     15.8820000000
     57      H       19.6250000000     30.9120000000     17.0080000000
     58      H       20.2430000000     28.5900000000     17.2240000000
     59      H       18.5240000000     29.9860000000     11.5360000000
     60      H       18.8100000000     25.8620000000     12.7230000000
     61      H       20.3770000000     33.8850000000     15.2060000000
     62      H       20.2750000000     33.1040000000     16.7930000000
     63      H       18.4460000000     29.2940000000      9.1530000000
     64      H       18.7090000000     25.1700000000     10.3460000000
     65      H       22.1760000000     31.6040000000     16.1770000000
     66      H       18.5320000000     26.8840000000      8.5520000000
     67      H       21.8370000000     31.5280000000     13.7020000000
     68      H       22.3030000000     33.2200000000     13.5780000000
     69      H       23.4800000000     32.0200000000     14.1000000000
     70      H       22.6170000000     33.7600000000     17.3190000000
     71      H       23.9450000000     33.3400000000     16.2390000000
     72      H       22.7810000000     34.5730000000     15.7660000000
     73      H       16.0810000000     31.3970000000     15.8800000000
     74      H       18.0800000000     35.1970000000     15.4890000000
     75      H       14.6690000000     32.3000000000     17.6830000000
     76      H       16.6650000000     36.1280000000     17.3040000000
     77      H       13.3860000000     34.7470000000     20.0150000000
     78      H       13.0860000000     33.7390000000     18.5710000000
     79      H       14.3050000000     33.2320000000     19.7810000000
 $END
