 $FMOPRP MODPAR=8205 NAODIR=210 MAXIT=100
     $END
 $FMO
      SCFTYP(1)=RHF
      MODGRD=10
      MODMUL=0
      MAXCAO=5
      MAXBND=4
      NLAYER=1
      NFRAG=4
      ICHARG(1)=   0, 0, 0, 0
      FRGNAM(1)= Frag1, Frag2, Frag3, Frag4
      INDAT(1)= 0
                    1   -13    46   -52     0
                   14   -20    22   -24    26   -27    30    53
                  -57    60   -64    67     0
                   21    25    28   -29    31   -33    35   -36
                   39   -40    43   -45    58   -59    65   -66
                   69   -70    73    78   -81     0
                   34    37   -38    41   -42    68    71   -72
                   74   -77     0
 $END
 $FMOBND
         -11      14  DFTB-C
         -19      21  DFTB-C
         -29      34  DFTB-C
 $END
 $DATA
 FMO calculation : umass_1_ad_12_2d_vm2_vchem
 C1 
 C   6
 N   7
 O   8
 S   16
 F   9
 H   1
 $END
 $FMOXYZ
      1      C       18.1420000000     23.6940000000      7.2150000000
      2      C       17.2350000000     24.7270000000      7.4640000000
      3      C       19.4850000000     23.9150000000      7.5360000000
      4      C       17.6570000000     25.9390000000      8.0120000000
      5      F       20.3770000000     22.9300000000      7.3060000000
      6      C       19.9490000000     25.1110000000      8.0840000000
      7      C       19.0180000000     26.1420000000      8.3260000000
      8      N       19.4270000000     27.3730000000      8.8840000000
      9      C       18.4780000000     28.4320000000      9.2110000000
     10      C       20.7180000000     27.7640000000      9.1820000000
     11      C       19.3650000000     29.5190000000      9.8480000000
     12      O       20.7180000000     29.0230000000      9.7120000000
     13      O       21.7700000000     27.1310000000      9.0170000000
     14      C       19.0410000000     29.7350000000     11.3450000000
     15      N       20.0930000000     29.8070000000     12.1990000000
     16      O       17.8510000000     29.8380000000     11.7140000000
     17      C       19.9150000000     29.7110000000     13.6530000000
     18      C       20.2180000000     28.2580000000     14.1280000000
     19      C       20.8410000000     30.7500000000     14.3450000000
     20      C       19.6000000000     27.2210000000     13.2140000000
     21      C       20.6380000000     30.7710000000     15.8800000000
     22      O       22.1990000000     30.4450000000     13.9970000000
     23      C       18.2070000000     27.1130000000     13.0920000000
     24      C       20.4160000000     26.3800000000     12.4430000000
     25      N       20.9720000000     32.0700000000     16.5220000000
     26      C       17.6430000000     26.1800000000     12.2210000000
     27      C       19.8510000000     25.4410000000     11.5780000000
     28      S       19.7370000000     33.2420000000     16.6130000000
     29      C       22.3650000000     32.5600000000     16.3600000000
     30      C       18.4630000000     25.3380000000     11.4660000000
     31      O       18.5000000000     32.5260000000     16.9360000000
     32      O       20.2210000000     34.2850000000     17.5210000000
     33      C       19.5700000000     33.9550000000     14.9530000000
     34      C       23.4080000000     31.6830000000     17.0800000000
     35      C       20.4920000000     34.9190000000     14.5190000000
     36      C       18.5420000000     33.5020000000     14.1100000000
     37      O       23.6550000000     30.4630000000     16.3190000000
     38      C       23.0350000000     31.2190000000     18.4900000000
     39      C       20.3760000000     35.4420000000     13.2260000000
     40      C       18.4340000000     34.0430000000     12.8130000000
     41      C       23.7850000000     29.3240000000     17.2060000000
     42      C       23.7480000000     29.8760000000     18.6280000000
     43      C       19.3620000000     35.0130000000     12.3760000000
     44      O       17.4690000000     33.6830000000     11.9350000000
     45      C       16.5140000000     32.6960000000     12.3240000000
     46      H       17.8200000000     22.7500000000      6.7870000000
     47      H       16.1840000000     24.5900000000      7.2280000000
     48      H       16.9300000000     26.7220000000      8.1950000000
     49      H       20.9990000000     25.2400000000      8.3230000000
     50      H       17.7070000000     28.0800000000      9.9150000000
     51      H       17.9580000000     28.7960000000      8.3100000000
     52      H       19.3000000000     30.4800000000      9.3050000000
     53      H       21.0370000000     29.6500000000     11.8430000000
     54      H       18.8610000000     29.9550000000     13.8590000000
     55      H       21.3020000000     28.1190000000     14.1630000000
     56      H       19.8440000000     28.1410000000     15.1510000000
     57      H       20.5950000000     31.7520000000     13.9300000000
     58      H       19.5930000000     30.5490000000     16.1200000000
     59      H       21.2470000000     29.9890000000     16.3510000000
     60      H       22.7620000000     30.4060000000     14.8050000000
     61      H       17.5650000000     27.7700000000     13.6730000000
     62      H       21.4980000000     26.4620000000     12.5210000000
     63      H       16.5630000000     26.1090000000     12.1290000000
     64      H       20.4940000000     24.7940000000     10.9880000000
     65      H       22.6290000000     32.6450000000     15.2920000000
     66      H       22.4100000000     33.5690000000     16.7840000000
     67      H       18.0230000000     24.6090000000     10.7900000000
     68      H       24.3600000000     32.2550000000     17.1020000000
     69      H       21.2770000000     35.2620000000     15.1860000000
     70      H       17.8420000000     32.7580000000     14.4780000000
     71      H       23.3390000000     31.9390000000     19.2520000000
     72      H       21.9510000000     31.0910000000     18.5750000000
     73      H       21.0860000000     36.1900000000     12.8850000000
     74      H       22.9500000000     28.6280000000     17.0060000000
     75      H       24.7220000000     28.7980000000     16.9680000000
     76      H       23.2390000000     29.2010000000     19.3190000000
     77      H       24.7630000000     30.0230000000     19.0100000000
     78      H       19.2710000000     35.4230000000     11.3750000000
     79      H       17.0080000000     31.7380000000     12.5310000000
     80      H       15.9540000000     33.0260000000     13.2090000000
     81      H       15.8230000000     32.5740000000     11.4870000000
 $END
