 $FMOPRP MODPAR=8205 NAODIR=210 MAXIT=100
     $END
 $FMO
      SCFTYP(1)=RHF
      MODGRD=10
      MODMUL=0
      MAXCAO=5
      MAXBND=4
      NLAYER=1
      NFRAG=4
      ICHARG(1)=   0, 0, 0, 0
      FRGNAM(1)= Frag1, Frag2, Frag3, Frag4
      INDAT(1)= 0
                    1   -16    48   -54     0
                   17   -23    25    27   -28    31   -32    37
                   55   -60    63   -64    67   -68    70     0
                   24    26    29   -30    34   -36    40   -47
                   61   -62    65   -66    77   -81     0
                   33    38   -39    69    71   -76     0
 $END
 $FMOBND
         -14      17  DFTB-C
         -21      24  DFTB-C
         -29      33  DFTB-C
 $END
 $DATA
 FMO calculation : umass_1_kb_60_2d_vm2_vchem
 C1 
 C   6
 N   7
 O   8
 S   16
 F   9
 H   1
 $END
 $FMOXYZ
      1      C       18.7300000000     26.5170000000      6.2200000000
      2      C       18.8020000000     25.5230000000      7.2090000000
      3      C       19.5280000000     27.6570000000      6.3390000000
      4      C       19.6640000000     25.6680000000      8.3060000000
      5      C       17.9540000000     24.2760000000      7.1180000000
      6      C       20.3810000000     27.8190000000      7.4270000000
      7      C       20.4550000000     26.8270000000      8.4260000000
      8      F       18.6930000000     23.1700000000      6.7630000000
      9      F       17.3630000000     23.9650000000      8.3160000000
     10      F       16.9490000000     24.3760000000      6.2020000000
     11      N       21.2920000000     27.0180000000      9.5450000000
     12      C       22.0450000000     28.2500000000      9.7600000000
     13      C       21.5230000000     26.1210000000     10.5740000000
     14      C       22.6060000000     28.0690000000     11.1830000000
     15      O       21.0950000000     24.9660000000     10.6920000000
     16      O       22.3390000000     26.6850000000     11.5110000000
     17      C       21.8750000000     28.9860000000     12.1970000000
     18      O       21.7140000000     30.1960000000     11.9350000000
     19      N       21.4180000000     28.4040000000     13.3350000000
     20      C       20.3800000000     29.0340000000     14.1660000000
     21      C       20.8260000000     29.0430000000     15.6500000000
     22      C       19.0420000000     28.2850000000     13.9440000000
     23      O       20.9460000000     27.6850000000     16.0880000000
     24      C       19.8510000000     29.7940000000     16.5890000000
     25      C       18.6350000000     28.1870000000     12.4880000000
     26      N       19.7210000000     31.2330000000     16.2390000000
     27      C       18.1070000000     26.9860000000     11.9920000000
     28      C       18.7470000000     29.2830000000     11.6180000000
     29      C       20.9000000000     32.0850000000     16.5970000000
     30      S       18.1590000000     31.9240000000     16.4280000000
     31      C       17.6890000000     26.8860000000     10.6650000000
     32      C       18.3370000000     29.1790000000     10.2880000000
     33      C       21.2150000000     33.1750000000     15.5490000000
     34      O       17.3750000000     31.1370000000     17.3940000000
     35      C       17.4300000000     31.6730000000     14.7970000000
     36      O       18.3270000000     33.3600000000     16.6680000000
     37      C       17.7990000000     27.9840000000      9.8090000000
     38      C       22.4410000000     33.9780000000     16.0040000000
     39      C       21.4300000000     32.5870000000     14.1510000000
     40      C       17.7530000000     32.5520000000     13.7530000000
     41      C       16.5520000000     30.5730000000     14.5970000000
     42      C       17.2250000000     32.3810000000     12.4590000000
     43      C       16.0460000000     30.4180000000     13.3160000000
     44      C       16.3750000000     31.2980000000     12.2710000000
     45      O       15.1990000000     29.4550000000     12.8470000000
     46      O       15.7430000000     30.9010000000     11.1330000000
     47      C       15.0030000000     29.7140000000     11.4510000000
     48      H       18.0570000000     26.3960000000      5.3780000000
     49      H       19.4770000000     28.4300000000      5.5780000000
     50      H       19.7030000000     24.8960000000      9.0680000000
     51      H       20.9840000000     28.7190000000      7.5020000000
     52      H       21.3960000000     29.1370000000      9.6970000000
     53      H       22.8420000000     28.3670000000      9.0080000000
     54      H       23.6960000000     28.2270000000     11.2320000000
     55      H       21.5370000000     27.3950000000     13.4500000000
     56      H       20.2890000000     30.0740000000     13.8180000000
     57      H       21.8270000000     29.5240000000     15.7030000000
     58      H       19.1200000000     27.2820000000     14.3710000000
     59      H       18.2530000000     28.8000000000     14.5080000000
     60      H       21.2440000000     27.6710000000     17.0160000000
     61      H       18.8590000000     29.3320000000     16.5390000000
     62      H       20.2030000000     29.6820000000     17.6290000000
     63      H       18.0240000000     26.1260000000     12.6530000000
     64      H       19.1620000000     30.2210000000     11.9770000000
     65      H       20.7480000000     32.5540000000     17.5820000000
     66      H       21.7590000000     31.4130000000     16.6940000000
     67      H       17.2790000000     25.9490000000     10.2960000000
     68      H       18.4330000000     30.0360000000      9.6280000000
     69      H       20.3590000000     33.8640000000     15.4980000000
     70      H       17.4730000000     27.9070000000      8.7760000000
     71      H       23.3210000000     33.3410000000     16.0670000000
     72      H       22.6570000000     34.7810000000     15.3040000000
     73      H       22.2730000000     34.4170000000     16.9850000000
     74      H       22.2230000000     31.8430000000     14.1510000000
     75      H       20.5220000000     32.1100000000     13.7860000000
     76      H       21.7010000000     33.3690000000     13.4460000000
     77      H       18.4190000000     33.3870000000     13.9520000000
     78      H       16.2930000000     29.9080000000     15.4160000000
     79      H       17.4790000000     33.0640000000     11.6560000000
     80      H       15.3790000000     28.8600000000     10.8470000000
     81      H       13.9250000000     29.8680000000     11.2370000000
 $END
