 $FMOPRP MODPAR=8205 NAODIR=210 MAXIT=100
     $END
 $FMO
      SCFTYP(1)=RHF
      MODGRD=10
      MODMUL=0
      MAXCAO=5
      MAXBND=4
      NLAYER=1
      NFRAG=4
      ICHARG(1)=   0, 0, 0, 0
      FRGNAM(1)= Frag1, Frag2, Frag3, Frag4
      INDAT(1)= 0
                    1   -14    45   -50     0
                   15   -22    24   -25    27   -28    31    51
                  -56    59   -62    65     0
                   23    26    29   -30    33   -35    38   -44
                   57   -58    63   -64    71   -77     0
                   32    36   -37    66   -70     0
 $END
 $FMOBND
         -12      15  DFTB-C
         -20      23  DFTB-C
         -29      32  DFTB-C
 $END
 $DATA
 FMO calculation : umass_1_kb_56_2d_vm2_vchem
 C1 
 C   6
 N   7
 O   8
 S   16
 F   9
 H   1
 $END
 $FMOXYZ
      1      C       17.5960000000     25.4250000000      7.2930000000
      2      C       18.6780000000     26.2960000000      7.0940000000
      3      F       16.7130000000     25.2120000000      6.2860000000
      4      C       17.4300000000     24.7840000000      8.5210000000
      5      C       19.6010000000     26.5410000000      8.1110000000
      6      F       18.8260000000     26.9130000000      5.9020000000
      7      C       18.3470000000     25.0160000000      9.5500000000
      8      C       19.4330000000     25.8950000000      9.3570000000
      9      N       20.3530000000     26.1580000000     10.3990000000
     10      C       21.4410000000     27.1180000000     10.2520000000
     11      C       20.3810000000     25.5730000000     11.6500000000
     12      C       22.0640000000     27.1610000000     11.6590000000
     13      O       21.3960000000     26.1080000000     12.3930000000
     14      O       19.6430000000     24.6890000000     12.1030000000
     15      C       21.8100000000     28.5190000000     12.3590000000
     16      O       22.0130000000     29.5850000000     11.7430000000
     17      N       21.3600000000     28.4760000000     13.6430000000
     18      C       20.6800000000     29.6370000000     14.2460000000
     19      C       19.1660000000     29.3260000000     14.3440000000
     20      C       21.3110000000     30.0030000000     15.6260000000
     21      C       18.5660000000     28.8750000000     13.0270000000
     22      O       21.0410000000     28.9910000000     16.6000000000
     23      C       20.7690000000     31.3310000000     16.1910000000
     24      C       18.8010000000     29.5870000000     11.8400000000
     25      C       17.7480000000     27.7380000000     12.9820000000
     26      N       20.8670000000     32.4390000000     15.2090000000
     27      C       18.2220000000     29.1730000000     10.6390000000
     28      C       17.1640000000     27.3290000000     11.7820000000
     29      C       22.2520000000     32.8640000000     14.8350000000
     30      S       19.6890000000     33.6810000000     15.3650000000
     31      C       17.3960000000     28.0480000000     10.6080000000
     32      C       23.0460000000     33.4230000000     16.0110000000
     33      O       19.4600000000     34.0350000000     16.7770000000
     34      C       18.2260000000     32.8340000000     14.7560000000
     35      O       20.0710000000     34.7440000000     14.4310000000
     36      C       23.9360000000     32.5280000000     16.8200000000
     37      C       24.5350000000     33.5410000000     15.9000000000
     38      C       17.2920000000     32.2880000000     15.6580000000
     39      C       18.0380000000     32.6620000000     13.3730000000
     40      C       16.2030000000     31.5670000000     15.1850000000
     41      C       16.9470000000     31.9480000000     12.8870000000
     42      C       16.0290000000     31.3770000000     13.7970000000
     43      O       14.9650000000     30.6400000000     13.4130000000
     44      C       14.7670000000     30.3750000000     12.0270000000
     45      H       16.5890000000     24.1140000000      8.6750000000
     46      H       20.4250000000     27.2210000000      7.9280000000
     47      H       18.2150000000     24.5270000000     10.5090000000
     48      H       21.0680000000     28.1080000000      9.9480000000
     49      H       22.1630000000     26.7880000000      9.4880000000
     50      H       23.1440000000     26.9350000000     11.6480000000
     51      H       21.1250000000     27.5590000000     14.0310000000
     52      H       20.8470000000     30.4800000000     13.5570000000
     53      H       19.0090000000     28.5550000000     15.1030000000
     54      H       18.6460000000     30.2220000000     14.7000000000
     55      H       22.4120000000     30.0780000000     15.4890000000
     56      H       21.4920000000     28.1650000000     16.3480000000
     57      H       19.7140000000     31.2060000000     16.4610000000
     58      H       21.3090000000     31.5790000000     17.1200000000
     59      H       19.4390000000     30.4660000000     11.8510000000
     60      H       17.5660000000     27.1730000000     13.8930000000
     61      H       18.4120000000     29.7340000000      9.7280000000
     62      H       16.5290000000     26.4470000000     11.7630000000
     63      H       22.7670000000     31.9970000000     14.4010000000
     64      H       22.1590000000     33.6150000000     14.0410000000
     65      H       16.9360000000     27.7350000000      9.6750000000
     66      H       22.5380000000     34.2190000000     16.5560000000
     67      H       24.0020000000     32.7060000000     17.8880000000
     68      H       24.0040000000     31.4840000000     16.5300000000
     69      H       25.0100000000     34.4120000000     16.3400000000
     70      H       25.0050000000     33.1810000000     14.9900000000
     71      H       17.4320000000     32.4310000000     16.7260000000
     72      H       18.7560000000     33.0900000000     12.6770000000
     73      H       15.4880000000     31.1370000000     15.8800000000
     74      H       16.8260000000     31.8290000000     11.8160000000
     75      H       13.8810000000     29.7440000000     11.9420000000
     76      H       14.6040000000     31.3080000000     11.4720000000
     77      H       15.6330000000     29.8480000000     11.6050000000
 $END
