 $FMOPRP MODPAR=8205 NAODIR=210 MAXIT=100
     $END
 $FMO
      SCFTYP(1)=RHF
      MODGRD=10
      MODMUL=0
      MAXCAO=5
      MAXBND=4
      NLAYER=1
      NFRAG=4
      ICHARG(1)=   0, 0, 0, 0
      FRGNAM(1)= Frag1, Frag2, Frag3, Frag4
      INDAT(1)= 0
                    1   -13    44   -50     0
                   14   -20    22   -24    26   -27    30    51
                  -55    58   -62    65     0
                   21    25    28   -29    32   -34    37   -43
                   56   -57    63   -64    71   -77     0
                   31    35   -36    66   -70     0
 $END
 $FMOBND
         -11      14  DFTB-C
         -19      21  DFTB-C
         -28      31  DFTB-C
 $END
 $DATA
 FMO calculation : umass_1_kb_58_2d_vm2_vchem
 C1 
 C   6
 N   7
 O   8
 S   16
 F   9
 H   1
 $END
 $FMOXYZ
      1      C       19.4260000000     25.5860000000      6.8020000000
      2      C       20.2880000000     26.6800000000      6.9050000000
      3      C       19.2850000000     24.7610000000      7.9230000000
      4      F       20.4430000000     27.4880000000      5.8360000000
      5      C       20.9990000000     26.9790000000      8.0690000000
      6      C       19.9790000000     25.0220000000      9.1050000000
      7      C       20.8380000000     26.1380000000      9.1900000000
      8      N       21.5320000000     26.4360000000     10.3840000000
      9      C       22.3970000000     27.6040000000     10.5080000000
     10      C       21.5120000000     25.7150000000     11.5620000000
     11      C       22.8060000000     27.5860000000     11.9940000000
     12      O       22.2730000000     26.3430000000     12.5090000000
     13      O       20.9260000000     24.6520000000     11.8060000000
     14      C       22.2010000000     28.7790000000     12.7700000000
     15      O       22.3310000000     29.9380000000     12.3260000000
     16      N       21.5290000000     28.5000000000     13.9190000000
     17      C       20.5970000000     29.4810000000     14.5020000000
     18      C       19.1470000000     28.9620000000     14.3360000000
     19      C       20.9590000000     29.7900000000     15.9890000000
     20      C       18.8330000000     28.5100000000     12.9240000000
     21      C       20.2130000000     31.0250000000     16.5270000000
     22      O       20.6280000000     28.6910000000     16.8410000000
     23      C       19.2030000000     29.2810000000     11.8110000000
     24      C       18.1530000000     27.3020000000     12.7120000000
     25      N       20.3900000000     32.2070000000     15.6480000000
     26      C       18.8950000000     28.8550000000     10.5190000000
     27      C       17.8420000000     26.8780000000     11.4190000000
     28      C       21.7770000000     32.7580000000     15.5500000000
     29      S       19.0960000000     33.3340000000     15.6280000000
     30      C       18.2090000000     27.6550000000     10.3190000000
     31      C       22.3140000000     33.2820000000     16.8770000000
     32      O       18.5810000000     33.5970000000     16.9840000000
     33      O       19.5450000000     34.4720000000     14.8190000000
     34      C       17.8530000000     32.3990000000     14.7280000000
     35      C       23.1060000000     32.3870000000     17.7820000000
     36      C       23.7890000000     33.4890000000     17.0390000000
     37      C       16.7950000000     31.7710000000     15.4130000000
     38      C       17.9640000000     32.2500000000     13.3340000000
     39      C       15.8790000000     30.9910000000     14.7190000000
     40      C       17.0480000000     31.4770000000     12.6270000000
     41      C       16.0050000000     30.8250000000     13.3230000000
     42      O       15.0960000000     30.0300000000     12.7220000000
     43      C       15.2210000000     29.7600000000     11.3270000000
     44      H       18.8880000000     25.3860000000      5.8820000000
     45      H       18.6220000000     23.9030000000      7.8770000000
     46      H       21.6510000000     27.8460000000      8.0940000000
     47      H       19.8490000000     24.3740000000      9.9640000000
     48      H       21.8630000000     28.5320000000     10.2500000000
     49      H       23.2670000000     27.5290000000      9.8370000000
     50      H       23.9020000000     27.5640000000     12.1250000000
     51      H       21.3870000000     27.5190000000     14.1690000000
     52      H       20.7320000000     30.4060000000     13.9200000000
     53      H       18.9800000000     28.1340000000     15.0320000000
     54      H       18.4550000000     29.7580000000     14.6350000000
     55      H       22.0560000000     29.9630000000     16.0440000000
     56      H       19.1410000000     30.8020000000     16.5870000000
     57      H       20.5530000000     31.2400000000     17.5530000000
     58      H       21.1500000000     27.9090000000     16.5820000000
     59      H       19.7380000000     30.2160000000     11.9530000000
     60      H       17.8680000000     26.6920000000     13.5660000000
     61      H       19.1890000000     29.4620000000      9.6670000000
     62      H       17.3150000000     25.9400000000     11.2700000000
     63      H       22.4310000000     31.9660000000     15.1590000000
     64      H       21.7570000000     33.5580000000     14.8000000000
     65      H       17.9640000000     27.3270000000      9.3130000000
     66      H       21.6670000000     34.0130000000     17.3650000000
     67      H       22.9730000000     32.4990000000     18.8530000000
     68      H       23.2920000000     31.3690000000     17.4530000000
     69      H       24.4330000000     33.2140000000     16.2090000000
     70      H       24.1230000000     34.3540000000     17.6030000000
     71      H       16.7030000000     31.8960000000     16.4890000000
     72      H       18.7780000000     32.7400000000     12.8060000000
     73      H       15.0680000000     30.4970000000     15.2470000000
     74      H       17.1550000000     31.3770000000     11.5530000000
     75      H       15.1150000000     30.6820000000     10.7390000000
     76      H       16.1930000000     29.2990000000     11.1070000000
     77      H       14.4210000000     29.0670000000     11.0590000000
 $END
