 $FMOPRP MODPAR=8205 NAODIR=210 MAXIT=100
     $END
 $FMO
      SCFTYP(1)=RHF
      MODGRD=10
      MODMUL=0
      MAXCAO=5
      MAXBND=4
      NLAYER=1
      NFRAG=4
      ICHARG(1)=   0, 0, 0, 0
      FRGNAM(1)= Frag1, Frag2, Frag3, Frag4
      INDAT(1)= 0
                    1   -15    45   -54     0
                   16   -22    24   -26    28   -29    32    55
                  -59    62   -66    69     0
                   23    27    30   -31    34   -36    39   -44
                   60   -61    67   -68    77   -82     0
                   33    37   -38    70   -76     0
 $END
 $FMOBND
         -13      16  DFTB-C
         -21      23  DFTB-C
         -30      33  DFTB-C
 $END
 $DATA
 FMO calculation : umass_1_ad_83_2d_vm2_vchem
 C1 
 C   6
 N   7
 O   8
 S   16
 H   1
 $END
 $FMOXYZ
      1      C       18.7310000000     25.4250000000      7.1820000000
      2      C       18.0560000000     25.4710000000      8.4150000000
      3      C       20.0820000000     25.7590000000      7.1130000000
      4      C       18.7540000000     25.8490000000      9.5730000000
      5      C       16.5970000000     25.1300000000      8.4570000000
      6      C       20.7790000000     26.1420000000      8.2590000000
      7      C       20.1170000000     26.1870000000      9.5010000000
      8      C       15.8330000000     25.3200000000      9.7570000000
      9      O       16.0260000000     24.7130000000      7.4510000000
     10      N       20.8210000000     26.6060000000     10.6570000000
     11      C       22.1770000000     27.1380000000     10.5940000000
     12      C       20.3380000000     26.6520000000     11.9460000000
     13      C       22.4280000000     27.6320000000     12.0330000000
     14      O       19.2600000000     26.2070000000     12.3740000000
     15      O       21.2350000000     27.2680000000     12.7680000000
     16      C       22.6550000000     29.1590000000     12.0810000000
     17      N       21.9280000000     29.8860000000     12.9740000000
     18      O       23.4850000000     29.6720000000     11.3030000000
     19      C       21.8270000000     31.3480000000     12.8240000000
     20      C       20.4210000000     31.7140000000     12.2830000000
     21      C       22.2260000000     32.1040000000     14.1200000000
     22      C       20.0630000000     30.8830000000     11.0660000000
     23      C       21.3730000000     31.8020000000     15.3760000000
     24      O       23.5820000000     31.7380000000     14.3940000000
     25      C       18.9180000000     30.0760000000     11.0770000000
     26      C       20.8820000000     30.8790000000      9.9260000000
     27      N       20.0970000000     32.5610000000     15.4190000000
     28      C       18.5940000000     29.2820000000      9.9750000000
     29      C       20.5600000000     30.0820000000      8.8270000000
     30      C       20.2370000000     34.0520000000     15.5190000000
     31      S       18.8800000000     31.8390000000     16.4170000000
     32      C       19.4150000000     29.2830000000      8.8470000000
     33      C       19.8270000000     34.7830000000     14.2180000000
     34      C       18.2230000000     30.5640000000     15.3450000000
     35      O       19.5000000000     31.1920000000     17.5880000000
     36      O       17.8490000000     32.8550000000     16.6500000000
     37      C       18.3850000000     34.4550000000     13.8170000000
     38      C       20.0270000000     36.2920000000     14.3920000000
     39      C       18.8310000000     29.2940000000     15.2910000000
     40      C       17.0810000000     30.8190000000     14.5620000000
     41      C       18.3240000000     28.3070000000     14.4590000000
     42      C       16.5580000000     29.8330000000     13.7370000000
     43      C       17.1860000000     28.5660000000     13.6590000000
     44      N       16.6820000000     27.5790000000     12.8400000000
     45      H       18.1820000000     25.1310000000      6.2920000000
     46      H       20.6020000000     25.7280000000      6.1590000000
     47      H       18.2440000000     25.8870000000     10.5300000000
     48      H       21.8290000000     26.4040000000      8.1860000000
     49      H       14.7870000000     25.0610000000      9.6260000000
     50      H       16.2500000000     24.6960000000     10.5460000000
     51      H       15.8960000000     26.3550000000     10.0910000000
     52      H       22.2530000000     27.9600000000      9.8650000000
     53      H       22.8990000000     26.3630000000     10.2930000000
     54      H       23.2830000000     27.1140000000     12.5030000000
     55      H       21.1970000000     29.4060000000     13.4980000000
     56      H       22.5770000000     31.6090000000     12.0610000000
     57      H       19.6680000000     31.5620000000     13.0640000000
     58      H       20.4100000000     32.7810000000     12.0360000000
     59      H       22.1870000000     33.1940000000     13.9050000000
     60      H       21.1400000000     30.7310000000     15.4200000000
     61      H       21.9810000000     32.0320000000     16.2680000000
     62      H       23.8840000000     32.1890000000     15.2050000000
     63      H       18.2760000000     30.0740000000     11.9540000000
     64      H       21.7770000000     31.4940000000      9.9030000000
     65      H       17.7010000000     28.6620000000     10.0010000000
     66      H       21.2050000000     30.0850000000      7.9520000000
     67      H       19.6180000000     34.4150000000     16.3480000000
     68      H       21.2800000000     34.2860000000     15.7690000000
     69      H       19.1650000000     28.6660000000      7.9880000000
     70      H       20.4910000000     34.4450000000     13.4070000000
     71      H       18.1190000000     34.9660000000     12.8950000000
     72      H       18.2610000000     33.3860000000     13.6580000000
     73      H       17.6860000000     34.7640000000     14.5900000000
     74      H       19.7740000000     36.8230000000     13.4770000000
     75      H       19.3950000000     36.6780000000     15.1900000000
     76      H       21.0610000000     36.5190000000     14.6430000000
     77      H       19.6980000000     29.0840000000     15.9130000000
     78      H       16.6040000000     31.7950000000     14.6140000000
     79      H       18.8050000000     27.3360000000     14.4030000000
     80      H       15.6780000000     30.0350000000     13.1340000000
     81      H       17.3020000000     26.8020000000     12.6240000000
     82      H       16.0100000000     27.8500000000     12.1270000000
 $END
