 $FMOPRP MODPAR=8205 NAODIR=210 MAXIT=100
     $END
 $FMO
      SCFTYP(1)=RHF
      MODGRD=10
      MODMUL=0
      MAXCAO=5
      MAXBND=4
      NLAYER=1
      NFRAG=4
      ICHARG(1)=   0, 0, 0, 0
      FRGNAM(1)= Frag1, Frag2, Frag3, Frag4
      INDAT(1)= 0
                    1   -14    44   -49     0
                   15   -21    23   -25    27   -28    31    50
                  -54    57   -61    64     0
                   22    26    29   -30    32   -34    36   -37
                   40   -43    55   -56    62   -63    66   -67
                   74   -77     0
                   35    38   -39    65    68   -73     0
 $END
 $FMOBND
         -14      15  DFTB-C
         -20      22  DFTB-C
         -30      35  DFTB-C
 $END
 $DATA
 FMO calculation : umass_1_ad_74_2d_vm2_vchem
 C1 
 C   6
 N   7
 O   8
 S   16
 F   9
 H   1
 $END
 $FMOXYZ
      1      C       23.3260000000     24.5000000000      7.9400000000
      2      C       23.0600000000     25.7570000000      7.3750000000
      3      F       23.6710000000     23.4640000000      7.1370000000
      4      C       23.2310000000     24.3180000000      9.3190000000
      5      C       22.7020000000     26.8430000000      8.1740000000
      6      F       23.1520000000     25.9190000000      6.0390000000
      7      C       22.8720000000     25.3960000000     10.1340000000
      8      C       22.6050000000     26.6610000000      9.5710000000
      9      N       22.2270000000     27.7550000000     10.3860000000
     10      C       22.0520000000     27.7490000000     11.7530000000
     11      C       21.9100000000     29.0650000000      9.8290000000
     12      O       21.6180000000     28.9700000000     12.1740000000
     13      O       22.2420000000     26.8220000000     12.5580000000
     14      C       21.5070000000     29.8900000000     11.0660000000
     15      C       20.0650000000     30.4360000000     10.9900000000
     16      O       19.6620000000     31.0040000000      9.9590000000
     17      N       19.2910000000     30.2850000000     12.1080000000
     18      C       17.8220000000     30.3650000000     12.0090000000
     19      C       17.2240000000     28.9270000000     12.0020000000
     20      C       17.2300000000     31.2120000000     13.1760000000
     21      C       17.9810000000     27.9940000000     11.0820000000
     22      C       17.7560000000     32.6710000000     13.1620000000
     23      O       15.8050000000     31.2390000000     13.0660000000
     24      C       18.0100000000     28.2200000000      9.6970000000
     25      C       18.6870000000     26.9010000000     11.6050000000
     26      N       17.7850000000     33.3060000000     14.5050000000
     27      C       18.7170000000     27.3630000000      8.8540000000
     28      C       19.3890000000     26.0390000000     10.7600000000
     29      S       19.2800000000     33.3940000000     15.3000000000
     30      C       16.5390000000     33.2360000000     15.3070000000
     31      C       19.4010000000     26.2650000000      9.3820000000
     32      O       20.2000000000     34.1360000000     14.4280000000
     33      C       19.9000000000     31.7030000000     15.4010000000
     34      O       19.0170000000     33.9240000000     16.6450000000
     35      C       15.3720000000     33.9900000000     14.6340000000
     36      C       21.1360000000     31.3780000000     14.8120000000
     37      C       19.1330000000     30.6830000000     15.9980000000
     38      C       15.7350000000     35.4510000000     14.3460000000
     39      C       14.1180000000     33.8880000000     15.5080000000
     40      C       21.5890000000     30.0660000000     14.7990000000
     41      C       19.5640000000     29.3640000000     15.9640000000
     42      C       20.7880000000     29.0300000000     15.3340000000
     43      N       21.2100000000     27.7180000000     15.2680000000
     44      H       23.4350000000     23.3460000000      9.7550000000
     45      H       22.5020000000     27.8010000000      7.7070000000
     46      H       22.7940000000     25.2560000000     11.2060000000
     47      H       21.0880000000     29.0040000000      9.0970000000
     48      H       22.7790000000     29.4990000000      9.3100000000
     49      H       22.2100000000     30.7240000000     11.2500000000
     50      H       19.6690000000     29.6990000000     12.8540000000
     51      H       17.6050000000     30.8570000000     11.0480000000
     52      H       17.2390000000     28.5270000000     13.0220000000
     53      H       16.1740000000     28.9920000000     11.6990000000
     54      H       17.5030000000     30.7240000000     14.1350000000
     55      H       18.7750000000     32.6990000000     12.7570000000
     56      H       17.1250000000     33.2720000000     12.4930000000
     57      H       15.4270000000     30.4250000000     13.4440000000
     58      H       17.4780000000     29.0720000000      9.2810000000
     59      H       18.6810000000     26.7210000000     12.6770000000
     60      H       18.7320000000     27.5480000000      7.7840000000
     61      H       19.9270000000     25.1920000000     11.1770000000
     62      H       16.2460000000     32.1860000000     15.4800000000
     63      H       16.7480000000     33.6780000000     16.2870000000
     64      H       19.9390000000     25.5900000000      8.7230000000
     65      H       15.1590000000     33.4950000000     13.6760000000
     66      H       21.7370000000     32.1650000000     14.3640000000
     67      H       18.1890000000     30.9300000000     16.4790000000
     68      H       16.5910000000     35.5100000000     13.6790000000
     69      H       14.9020000000     35.9660000000     13.8760000000
     70      H       15.9850000000     35.9800000000     15.2630000000
     71      H       13.2710000000     34.3710000000     15.0250000000
     72      H       13.8570000000     32.8480000000     15.6880000000
     73      H       14.2720000000     34.3660000000     16.4730000000
     74      H       22.5480000000     29.8260000000     14.3510000000
     75      H       18.9550000000     28.5810000000     16.4030000000
     76      H       21.8880000000     27.4780000000     14.5440000000
     77      H       20.5210000000     27.0000000000     15.4740000000
 $END
