 $FMOPRP MODPAR=8205 NAODIR=210 MAXIT=100
     $END
 $FMO
      SCFTYP(1)=RHF
      MODGRD=10
      MODMUL=0
      MAXCAO=5
      MAXBND=4
      NLAYER=1
      NFRAG=4
      ICHARG(1)=   0, 0, 0, 0
      FRGNAM(1)= Frag1, Frag2, Frag3, Frag4
      INDAT(1)= 0
                    1   -15    47   -56     0
                   16   -21    23   -24    26   -27    30   -31
                   36    57   -61    64   -66    69   -70    72
                    0
                   22    25    28   -29    33   -35    39   -46
                   62   -63    67   -68    79   -83     0
                   32    37   -38    71    73   -78     0
 $END
 $FMOBND
         -13      16  DFTB-C
         -20      22  DFTB-C
         -28      32  DFTB-C
 $END
 $DATA
 FMO calculation : umass_1_kb_54_2d_vm2_vchem
 C1 
 C   6
 N   7
 O   8
 S   16
 H   1
 $END
 $FMOXYZ
      1      C       20.9420000000     25.1670000000      6.3870000000
      2      C       21.0180000000     26.5400000000      6.0860000000
      3      C       21.4690000000     24.7230000000      7.6160000000
      4      C       20.2980000000     24.2460000000      5.4080000000
      5      C       21.5800000000     27.4440000000      6.9780000000
      6      C       22.0370000000     25.6140000000      8.5190000000
      7      O       19.9120000000     24.6670000000      4.3140000000
      8      C       20.1020000000     22.7880000000      5.7820000000
      9      C       22.0860000000     26.9910000000      8.2150000000
     10      N       22.6130000000     27.9220000000      9.1370000000
     11      C       22.6400000000     29.3560000000      8.8690000000
     12      C       23.0900000000     27.6520000000     10.4080000000
     13      C       23.1240000000     29.9630000000     10.2080000000
     14      O       23.2400000000     26.5540000000     10.9550000000
     15      O       23.3780000000     28.8210000000     11.0570000000
     16      C       22.0380000000     30.8460000000     10.8570000000
     17      N       21.1040000000     30.1970000000     11.5970000000
     18      O       21.9960000000     32.0820000000     10.6620000000
     19      C       19.8390000000     30.8330000000     12.0120000000
     20      C       20.0340000000     31.8140000000     13.2160000000
     21      C       18.7800000000     29.7340000000     12.2560000000
     22      C       21.1160000000     31.4140000000     14.2600000000
     23      O       20.4100000000     33.0920000000     12.6800000000
     24      C       18.7770000000     28.7110000000     11.1370000000
     25      N       20.8200000000     30.2360000000     15.1070000000
     26      C       19.1380000000     27.3810000000     11.3940000000
     27      C       18.4700000000     29.0920000000      9.8220000000
     28      C       21.3420000000     28.9050000000     14.7250000000
     29      S       19.7020000000     30.3660000000     16.3660000000
     30      C       19.1850000000     26.4470000000     10.3580000000
     31      C       18.5170000000     28.1570000000      8.7880000000
     32      C       22.8860000000     28.8620000000     14.6210000000
     33      O       20.0470000000     29.3520000000     17.3670000000
     34      C       18.0960000000     29.9200000000     15.6550000000
     35      O       19.6530000000     31.7770000000     16.7540000000
     36      C       18.8740000000     26.8320000000      9.0540000000
     37      C       23.5420000000     29.3360000000     15.9200000000
     38      C       23.3400000000     27.4470000000     14.2470000000
     39      C       17.7940000000     28.5670000000     15.4340000000
     40      C       17.1970000000     30.9520000000     15.2750000000
     41      C       16.5880000000     28.1740000000     14.8220000000
     42      C       16.0150000000     30.5470000000     14.6770000000
     43      C       15.7180000000     29.1920000000     14.4500000000
     44      O       14.9870000000     31.3180000000     14.2160000000
     45      O       14.5040000000     29.0930000000     13.8420000000
     46      C       14.0040000000     30.4280000000     13.6720000000
     47      H       20.6160000000     26.8900000000      5.1380000000
     48      H       21.4350000000     23.6680000000      7.8730000000
     49      H       21.6160000000     28.4970000000      6.7200000000
     50      H       22.4270000000     25.2510000000      9.4620000000
     51      H       19.6000000000     22.2520000000      4.9820000000
     52      H       21.0590000000     22.3050000000      5.9770000000
     53      H       19.5040000000     22.7020000000      6.6880000000
     54      H       21.6420000000     29.7270000000      8.5860000000
     55      H       23.3240000000     29.5970000000      8.0400000000
     56      H       24.0630000000     30.5290000000     10.0970000000
     57      H       21.1820000000     29.1860000000     11.7010000000
     58      H       19.4970000000     31.4510000000     11.1630000000
     59      H       19.0610000000     31.9520000000     13.7230000000
     60      H       18.9680000000     29.2300000000     13.2080000000
     61      H       17.8010000000     30.2160000000     12.3430000000
     62      H       22.0680000000     31.2330000000     13.7500000000
     63      H       21.2680000000     32.2810000000     14.9160000000
     64      H       21.0490000000     32.9430000000     11.9440000000
     65      H       19.3840000000     27.0790000000     12.4100000000
     66      H       18.1960000000     30.1220000000      9.6110000000
     67      H       21.0110000000     28.1920000000     15.4860000000
     68      H       20.9000000000     28.5690000000     13.7680000000
     69      H       19.4700000000     25.4190000000     10.5690000000
     70      H       18.2800000000     28.4620000000      7.7730000000
     71      H       23.1990000000     29.5380000000     13.8100000000
     72      H       18.9120000000     26.1060000000      8.2460000000
     73      H       24.6250000000     29.3250000000     15.8280000000
     74      H       23.2300000000     30.3500000000     16.1620000000
     75      H       23.2660000000     28.6920000000     16.7520000000
     76      H       22.9220000000     27.1450000000     13.2890000000
     77      H       24.4230000000     27.4040000000     14.1690000000
     78      H       23.0270000000     26.7260000000     14.9990000000
     79      H       18.5050000000     27.8080000000     15.7450000000
     80      H       17.4320000000     31.9950000000     15.4630000000
     81      H       16.3620000000     27.1280000000     14.6510000000
     82      H       13.8490000000     30.6420000000     12.5930000000
     83      H       13.0400000000     30.5460000000     14.2110000000
 $END
