 $FMOPRP MODPAR=8205 NAODIR=210 MAXIT=100
     $END
 $FMO
      SCFTYP(1)=RHF
      MODGRD=10
      MODMUL=0
      MAXCAO=5
      MAXBND=4
      NLAYER=1
      NFRAG=4
      ICHARG(1)=   0, 0, 0, 0
      FRGNAM(1)= Frag1, Frag2, Frag3, Frag4
      INDAT(1)= 0
                    1   -15    47   -56     0
                   16   -21    23   -24    26   -27    30   -31
                   36    57   -61    64   -66    69   -70    72
                    0
                   22    25    28   -29    32   -34    37   -38
                   41   -46    62   -63    67   -68    73   -74
                   81   -84     0
                   35    39   -40    71    75   -80     0
 $END
 $FMOBND
         -13      16  DFTB-C
         -20      22  DFTB-C
         -29      35  DFTB-C
 $END
 $DATA
 FMO calculation : umass_1_kb_61_2d_vm2_vchem
 C1 
 C   6
 N   7
 O   8
 S   16
 F   9
 H   1
 $END
 $FMOXYZ
      1      C       22.1210000000     25.1270000000      5.8570000000
      2      C       22.2070000000     26.5180000000      5.8400000000
      3      C       21.9320000000     24.4520000000      7.0770000000
      4      C       22.0970000000     27.2540000000      7.0190000000
      5      C       21.8230000000     25.1880000000      8.2680000000
      6      C       21.8280000000     22.9580000000      7.1560000000
      7      C       21.8940000000     26.5910000000      8.2470000000
      8      C       21.9440000000     22.1390000000      5.8830000000
      9      O       21.6490000000     22.4030000000      8.2400000000
     10      N       21.7400000000     27.3510000000      9.4330000000
     11      C       21.7190000000     28.8090000000      9.4240000000
     12      C       21.5430000000     26.8650000000     10.7110000000
     13      C       21.3500000000     29.1650000000     10.8780000000
     14      O       21.5290000000     25.6890000000     11.0940000000
     15      O       21.3510000000     27.9030000000     11.5830000000
     16      C       19.9520000000     29.8200000000     10.9770000000
     17      N       19.0280000000     29.1880000000     11.7500000000
     18      O       19.7130000000     30.8790000000     10.3610000000
     19      C       17.5990000000     29.5430000000     11.7000000000
     20      C       17.1050000000     29.9040000000     13.1230000000
     21      C       16.7980000000     28.3630000000     11.0880000000
     22      C       17.9120000000     31.0950000000     13.7310000000
     23      O       15.7170000000     30.2320000000     13.0660000000
     24      C       17.4650000000     27.8210000000      9.8410000000
     25      N       18.3930000000     30.7980000000     15.0990000000
     26      C       17.8960000000     26.4870000000      9.7910000000
     27      C       17.7000000000     28.6510000000      8.7350000000
     28      S       17.3300000000     30.9930000000     16.3890000000
     29      C       19.6170000000     29.9740000000     15.2290000000
     30      C       18.5310000000     25.9890000000      8.6520000000
     31      C       18.3410000000     28.1540000000      7.6000000000
     32      C       17.8140000000     32.5780000000     17.1050000000
     33      O       15.9790000000     31.1330000000     15.8150000000
     34      O       17.5810000000     29.9520000000     17.3880000000
     35      C       20.8870000000     30.7170000000     14.7510000000
     36      C       18.7520000000     26.8200000000      7.5530000000
     37      C       17.3880000000     33.7800000000     16.5210000000
     38      C       18.6810000000     32.6010000000     18.2190000000
     39      C       21.1230000000     31.9980000000     15.5590000000
     40      C       22.0950000000     29.7770000000     14.8140000000
     41      C       17.8050000000     35.0140000000     17.0320000000
     42      C       19.0850000000     33.8310000000     18.7180000000
     43      C       18.6660000000     35.0560000000     18.1440000000
     44      F       19.9130000000     33.8700000000     19.7890000000
     45      O       19.1310000000     36.1930000000     18.7160000000
     46      C       18.7360000000     37.4460000000     18.1620000000
     47      H       22.2010000000     24.5690000000      4.9290000000
     48      H       22.3550000000     27.0390000000      4.8990000000
     49      H       22.1600000000     28.3360000000      6.9800000000
     50      H       21.6690000000     24.6530000000      9.2000000000
     51      H       21.1720000000     22.4260000000      5.1700000000
     52      H       22.9080000000     22.3080000000      5.4040000000
     53      H       21.8430000000     21.0790000000      6.0990000000
     54      H       20.9760000000     29.1960000000      8.7090000000
     55      H       22.6990000000     29.2220000000      9.1350000000
     56      H       22.1040000000     29.8190000000     11.3500000000
     57      H       19.2740000000     28.2860000000     12.1650000000
     58      H       17.5220000000     30.4240000000     11.0450000000
     59      H       17.2360000000     29.0120000000     13.7760000000
     60      H       16.7070000000     27.5650000000     11.8320000000
     61      H       15.7840000000     28.7120000000     10.8690000000
     62      H       18.7850000000     31.3350000000     13.1120000000
     63      H       17.2870000000     31.9930000000     13.7600000000
     64      H       15.4390000000     30.5290000000     13.9530000000
     65      H       17.7310000000     25.8380000000     10.6470000000
     66      H       17.3850000000     29.6910000000      8.7660000000
     67      H       19.7220000000     29.6890000000     16.2810000000
     68      H       19.4950000000     29.0430000000     14.6490000000
     69      H       18.8590000000     24.9530000000      8.6260000000
     70      H       18.5190000000     28.8080000000      6.7500000000
     71      H       20.7390000000     31.0040000000     13.6980000000
     72      H       19.2460000000     26.4320000000      6.6660000000
     73      H       16.7210000000     33.7530000000     15.6640000000
     74      H       19.0180000000     31.6780000000     18.6800000000
     75      H       20.2680000000     32.6670000000     15.4750000000
     76      H       21.2740000000     31.7740000000     16.6130000000
     77      H       22.0020000000     32.5250000000     15.1950000000
     78      H       22.2950000000     29.4680000000     15.8370000000
     79      H       21.9180000000     28.8830000000     14.2200000000
     80      H       22.9850000000     30.2700000000     14.4300000000
     81      H       17.4580000000     35.9270000000     16.5610000000
     82      H       17.6450000000     37.5630000000     18.2070000000
     83      H       19.2100000000     38.2260000000     18.7610000000
     84      H       19.0680000000     37.5320000000     17.1190000000
 $END
