 $FMOPRP MODPAR=8205 NAODIR=210 MAXIT=100
     $END
 $FMO
      SCFTYP(1)=RHF
      MODGRD=10
      MODMUL=0
      MAXCAO=5
      MAXBND=4
      NLAYER=1
      NFRAG=4
      ICHARG(1)=   0, 0, 0, 0
      FRGNAM(1)= Frag1, Frag2, Frag3, Frag4
      INDAT(1)= 0
                    1   -15    46   -55     0
                   16   -23    25   -26    28   -29    32    56
                  -61    64   -67    70     0
                   24    27    30   -31    34   -36    39   -45
                   62   -63    68   -69    76   -82     0
                   33    37   -38    71   -75     0
 $END
 $FMOBND
         -15      16  DFTB-C
         -21      24  DFTB-C
         -30      33  DFTB-C
 $END
 $DATA
 FMO calculation : umass_1_kb_53_2d_vm2_vchem
 C1 
 C   6
 N   7
 O   8
 S   16
 H   1
 $END
 $FMOXYZ
      1      C       18.3680000000     26.2310000000      6.8460000000
      2      C       18.4350000000     25.3760000000      7.9640000000
      3      C       19.2420000000     27.3340000000      6.7990000000
      4      C       17.4160000000     26.0150000000      5.7220000000
      5      C       19.3280000000     25.6140000000      9.0010000000
      6      C       20.1410000000     27.5860000000      7.8260000000
      7      O       17.3910000000     26.7940000000      4.7640000000
      8      C       16.4740000000     24.8240000000      5.7640000000
      9      C       20.1880000000     26.7310000000      8.9490000000
     10      N       21.0750000000     27.0170000000     10.0060000000
     11      C       21.2630000000     26.2780000000     11.1620000000
     12      C       21.9270000000     28.2040000000     10.0140000000
     13      O       20.7460000000     25.1980000000     11.4740000000
     14      O       22.1520000000     26.9100000000     11.9840000000
     15      C       22.5470000000     28.1840000000     11.4240000000
     16      C       21.9980000000     29.3340000000     12.3030000000
     17      O       22.0140000000     30.5060000000     11.8740000000
     18      N       21.5010000000     28.9980000000     13.5240000000
     19      C       20.6100000000     29.9100000000     14.2600000000
     20      C       19.1670000000     29.3480000000     14.2270000000
     21      C       21.1280000000     30.1430000000     15.7160000000
     22      C       18.6950000000     28.9810000000     12.8340000000
     23      O       20.9510000000     28.9730000000     16.5190000000
     24      C       20.3880000000     31.2950000000     16.4220000000
     25      C       18.8910000000     29.8440000000     11.7450000000
     26      C       18.0330000000     27.7640000000     12.6200000000
     27      N       20.4310000000     32.5500000000     15.6300000000
     28      C       18.4270000000     29.5000000000     10.4750000000
     29      C       17.5630000000     27.4220000000     11.3510000000
     30      C       21.7790000000     33.1800000000     15.4740000000
     31      S       19.0990000000     33.6110000000     15.8450000000
     32      C       17.7550000000     28.2920000000     10.2750000000
     33      C       22.3920000000     33.6210000000     16.7980000000
     34      O       18.7210000000     33.7320000000     17.2640000000
     35      C       17.8040000000     32.6970000000     14.9970000000
     36      O       19.4140000000     34.8370000000     15.1040000000
     37      C       23.2820000000     32.6900000000     17.5670000000
     38      C       23.8660000000     33.8780000000     16.8740000000
     39      C       17.7660000000     32.6720000000     13.5920000000
     40      C       16.8500000000     31.9690000000     15.7330000000
     41      C       16.8010000000     31.9270000000     12.9210000000
     42      C       15.8850000000     31.2170000000     15.0750000000
     43      C       15.8590000000     31.1800000000     13.6630000000
     44      O       14.9070000000     30.4110000000     13.0950000000
     45      C       14.8670000000     30.2880000000     11.6750000000
     46      H       17.7750000000     24.5150000000      8.0300000000
     47      H       19.1990000000     27.9960000000      5.9380000000
     48      H       19.3550000000     24.9490000000      9.8560000000
     49      H       20.7990000000     28.4470000000      7.7620000000
     50      H       15.8460000000     24.8030000000      4.8790000000
     51      H       17.0340000000     23.8910000000      5.8160000000
     52      H       15.8360000000     24.8700000000      6.6460000000
     53      H       21.3410000000     29.1210000000      9.8470000000
     54      H       22.6910000000     28.1500000000      9.2210000000
     55      H       23.6510000000     28.2160000000     11.3980000000
     56      H       21.4540000000     28.0060000000     13.7670000000
     57      H       20.6510000000     30.8720000000     13.7230000000
     58      H       19.1120000000     28.4690000000     14.8760000000
     59      H       18.4920000000     30.0940000000     14.6610000000
     60      H       22.2130000000     30.3750000000     15.6600000000
     61      H       21.5030000000     28.2490000000     16.1690000000
     62      H       19.3370000000     31.0180000000     16.5670000000
     63      H       20.8190000000     31.4470000000     17.4250000000
     64      H       19.4110000000     30.7880000000     11.8870000000
     65      H       17.8830000000     27.0820000000     13.4540000000
     66      H       18.5860000000     30.1770000000      9.6410000000
     67      H       17.0500000000     26.4760000000     11.2000000000
     68      H       22.4340000000     32.4580000000     14.9700000000
     69      H       21.6620000000     34.0360000000     14.7980000000
     70      H       17.3880000000     28.0280000000      9.2870000000
     71      H       21.7550000000     34.2800000000     17.3890000000
     72      H       23.2220000000     32.7080000000     18.6500000000
     73      H       23.4800000000     31.7110000000     17.1420000000
     74      H       24.2070000000     34.7080000000     17.4830000000
     75      H       24.4560000000     33.7010000000     15.9800000000
     76      H       18.5000000000     33.2390000000     13.0250000000
     77      H       16.8750000000     31.9970000000     16.8190000000
     78      H       16.7910000000     31.9250000000     11.8360000000
     79      H       15.1530000000     30.6490000000     15.6400000000
     80      H       15.8090000000     29.8740000000     11.2940000000
     81      H       14.0480000000     29.6070000000     11.4340000000
     82      H       14.6800000000     31.2620000000     11.2050000000
 $END
