 $FMOPRP MODPAR=8205 NAODIR=210 MAXIT=100
     $END
 $FMO
      SCFTYP(1)=RHF
      MODGRD=10
      MODMUL=0
      MAXCAO=5
      MAXBND=4
      NLAYER=1
      NFRAG=4
      ICHARG(1)=   0, 0, 0, 0
      FRGNAM(1)= Frag1, Frag2, Frag3, Frag4
      INDAT(1)= 0
                    1   -14    46   -51     0
                   15   -21    23    25   -26    29   -30    35
                   52   -57    60   -61    64   -65    67     0
                   22    24    27   -28    32   -34    38   -45
                   58   -59    62   -63    74   -78     0
                   31    36   -37    66    68   -73     0
 $END
 $FMOBND
         -14      15  DFTB-C
         -19      22  DFTB-C
         -27      31  DFTB-C
 $END
 $DATA
 FMO calculation : umass_1_kb_55_2d_vm2_vchem
 C1 
 C   6
 N   7
 O   8
 S   16
 F   9
 H   1
 $END
 $FMOXYZ
      1      C       21.6770000000     24.6620000000      5.8580000000
      2      C       22.0440000000     25.9980000000      6.0750000000
      3      C       21.5710000000     23.7820000000      6.9350000000
      4      F       21.4260000000     24.2310000000      4.5980000000
      5      F       22.1420000000     26.8410000000      5.0250000000
      6      C       22.3050000000     26.4730000000      7.3600000000
      7      C       21.8320000000     24.2400000000      8.2300000000
      8      C       22.1970000000     25.5840000000      8.4540000000
      9      N       22.4460000000     26.0650000000      9.7600000000
     10      C       22.3820000000     25.3460000000     10.9380000000
     11      C       22.7970000000     27.4560000000     10.0200000000
     12      O       22.6380000000     26.1650000000     12.0010000000
     13      O       22.1430000000     24.1410000000     11.0910000000
     14      C       22.8620000000     27.5230000000     11.5570000000
     15      C       21.7720000000     28.4510000000     12.1410000000
     16      O       21.5820000000     29.5780000000     11.6360000000
     17      N       21.0590000000     27.9850000000     13.2000000000
     18      C       19.7850000000     28.6180000000     13.5800000000
     19      C       19.7810000000     28.9810000000     15.0980000000
     20      C       18.6130000000     27.6950000000     13.1500000000
     21      O       19.6060000000     27.8220000000     15.9210000000
     22      C       18.6910000000     30.0250000000     15.4480000000
     23      C       18.7440000000     27.2970000000     11.6960000000
     24      N       18.8210000000     31.2700000000     14.6410000000
     25      C       18.6360000000     28.2610000000     10.6830000000
     26      C       19.0160000000     25.9670000000     11.3420000000
     27      C       19.5300000000     32.3980000000     15.3100000000
     28      S       17.4970000000     31.7020000000     13.6500000000
     29      C       18.7890000000     27.9010000000      9.3440000000
     30      C       19.1630000000     25.6060000000     10.0010000000
     31      C       21.0620000000     32.2040000000     15.3540000000
     32      O       17.9670000000     32.7630000000     12.7560000000
     33      C       16.2480000000     32.3900000000     14.7610000000
     34      O       16.9820000000     30.4580000000     13.0690000000
     35      C       19.0510000000     26.5720000000      9.0000000000
     36      C       21.6480000000     32.0470000000     13.9480000000
     37      C       21.7050000000     33.3820000000     16.0940000000
     38      C       15.3430000000     31.5090000000     15.4120000000
     39      C       16.2430000000     33.7690000000     15.0170000000
     40      C       14.4550000000     32.0920000000     16.3000000000
     41      C       15.3330000000     34.3430000000     15.9240000000
     42      C       14.4510000000     33.4740000000     16.5540000000
     43      O       13.4850000000     31.4920000000     17.0530000000
     44      O       13.4810000000     33.7620000000     17.4660000000
     45      C       12.8440000000     32.5240000000     17.8130000000
     46      H       21.2860000000     22.7480000000      6.7660000000
     47      H       22.5820000000     27.5120000000      7.4960000000
     48      H       21.7480000000     23.5590000000      9.0690000000
     49      H       22.0370000000     28.1470000000      9.6220000000
     50      H       23.7580000000     27.7190000000      9.5520000000
     51      H       23.8570000000     27.8370000000     11.9180000000
     52      H       21.2100000000     27.0220000000     13.5050000000
     53      H       19.7350000000     29.5560000000     13.0050000000
     54      H       20.7770000000     29.3860000000     15.3500000000
     55      H       18.6040000000     26.8000000000     13.7790000000
     56      H       17.6710000000     28.2270000000     13.3180000000
     57      H       18.6810000000     27.5190000000     15.8790000000
     58      H       17.7020000000     29.5840000000     15.2730000000
     59      H       18.7500000000     30.2750000000     16.5170000000
     60      H       18.4320000000     29.2960000000     10.9480000000
     61      H       19.1110000000     25.2130000000     12.1200000000
     62      H       19.3000000000     33.3150000000     14.7560000000
     63      H       19.1420000000     32.5260000000     16.3340000000
     64      H       18.7060000000     28.6560000000      8.5670000000
     65      H       19.3690000000     24.5720000000      9.7390000000
     66      H       21.2780000000     31.2900000000     15.9270000000
     67      H       19.1650000000     26.2920000000      7.9560000000
     68      H       22.7250000000     31.9010000000     13.9970000000
     69      H       21.2150000000     31.1930000000     13.4310000000
     70      H       21.4560000000     32.9350000000     13.3490000000
     71      H       22.7810000000     33.2440000000     16.1740000000
     72      H       21.5240000000     34.3170000000     15.5670000000
     73      H       21.2980000000     33.4770000000     17.0990000000
     74      H       15.3500000000     30.4430000000     15.2050000000
     75      H       16.9520000000     34.4050000000     14.4950000000
     76      H       15.3290000000     35.4100000000     16.1150000000
     77      H       11.7630000000     32.5690000000     17.5640000000
     78      H       12.9600000000     32.3270000000     18.9000000000
 $END
