 $FMOPRP MODPAR=8205 NAODIR=210 MAXIT=100
     $END
 $FMO
      SCFTYP(1)=RHF
      MODGRD=10
      MODMUL=0
      MAXCAO=5
      MAXBND=4
      NLAYER=1
      NFRAG=4
      ICHARG(1)=   0, 0, 0, 0
      FRGNAM(1)= Frag1, Frag2, Frag3, Frag4
      INDAT(1)= 0
                    1   -12    45   -52     0
                   13   -18    20   -21    23   -24    27   -28
                   33    53   -57    60   -62    65   -66    68
                    0
                   19    22    25   -26    30   -32    36   -37
                   40   -44    58   -59    63   -64    71   -72
                   77   -81     0
                   29    34   -35    38   -39    67    69   -70
                   73   -76     0
 $END
 $FMOBND
         -10      13  DFTB-C
         -17      19  DFTB-C
         -25      29  DFTB-C
 $END
 $DATA
 FMO calculation : umass_1_ad_24_2d_vm2_vchem
 C1 
 C   6
 N   7
 O   8
 S   16
 H   1
 $END
 $FMOXYZ
      1      C       19.6860000000     24.0210000000      8.5200000000
      2      C       19.5260000000     24.1120000000      9.9040000000
      3      C       20.3550000000     25.0390000000      7.8380000000
      4      C       20.0370000000     25.2000000000     10.6120000000
      5      C       20.8710000000     26.1360000000      8.5280000000
      6      C       20.7180000000     26.2230000000      9.9250000000
      7      N       21.2460000000     27.3440000000     10.6160000000
      8      C       21.8830000000     28.4550000000      9.9190000000
      9      C       21.2590000000     27.5490000000     11.9810000000
     10      C       22.2090000000     29.4440000000     11.0530000000
     11      O       20.8600000000     26.7930000000     12.8760000000
     12      O       21.8110000000     28.7690000000     12.2670000000
     13      C       21.4520000000     30.7840000000     10.9180000000
     14      N       20.8510000000     31.2730000000     12.0340000000
     15      O       21.4340000000     31.3810000000      9.8200000000
     16      C       19.9310000000     32.4170000000     11.9670000000
     17      C       19.8020000000     33.0570000000     13.3690000000
     18      C       18.5380000000     31.9650000000     11.4140000000
     19      C       21.1730000000     33.4910000000     13.9700000000
     20      O       18.9420000000     34.1960000000     13.2360000000
     21      C       18.1090000000     30.6310000000     11.9780000000
     22      N       21.2900000000     33.2520000000     15.4330000000
     23      C       18.4000000000     29.4480000000     11.2800000000
     24      C       17.4660000000     30.5390000000     13.2220000000
     25      C       22.2240000000     32.2070000000     15.9160000000
     26      S       20.1490000000     33.8950000000     16.4830000000
     27      C       18.0650000000     28.2040000000     11.8150000000
     28      C       17.1390000000     29.2940000000     13.7600000000
     29      C       22.0850000000     30.8500000000     15.1930000000
     30      O       20.7750000000     34.0180000000     17.8020000000
     31      C       18.7660000000     32.7270000000     16.6220000000
     32      O       19.6230000000     35.1080000000     15.8260000000
     33      C       17.4420000000     28.1230000000     13.0630000000
     34      O       20.6900000000     30.5600000000     14.9310000000
     35      C       22.6180000000     29.6560000000     15.9930000000
     36      C       18.9530000000     31.4970000000     17.2600000000
     37      C       17.5140000000     33.0730000000     16.0890000000
     38      C       20.4020000000     29.1620000000     15.1780000000
     39      C       21.7250000000     28.4990000000     15.5540000000
     40      C       17.8790000000     30.5890000000     17.3470000000
     41      C       16.4500000000     32.1750000000     16.2010000000
     42      C       16.6180000000     30.9360000000     16.8210000000
     43      O       18.1390000000     29.4020000000     17.9510000000
     44      C       17.1220000000     28.4070000000     17.9860000000
     45      H       19.2870000000     23.1700000000      7.9760000000
     46      H       19.0020000000     23.3260000000     10.4420000000
     47      H       20.4800000000     24.9820000000      6.7600000000
     48      H       19.9070000000     25.2590000000     11.6870000000
     49      H       21.3860000000     26.9200000000      7.9810000000
     50      H       21.2100000000     28.9040000000      9.1720000000
     51      H       22.7900000000     28.1260000000      9.3860000000
     52      H       23.2930000000     29.6470000000     11.1220000000
     53      H       20.7820000000     30.6730000000     12.8640000000
     54      H       20.3610000000     33.1510000000     11.2660000000
     55      H       19.3270000000     32.3170000000     14.0490000000
     56      H       17.8080000000     32.7440000000     11.6520000000
     57      H       18.6100000000     31.8960000000     10.3260000000
     58      H       21.9940000000     32.9460000000     13.4930000000
     59      H       21.3350000000     34.5590000000     13.7630000000
     60      H       18.9820000000     34.7330000000     14.0510000000
     61      H       18.8860000000     29.5070000000     10.3080000000
     62      H       17.2230000000     31.4450000000     13.7720000000
     63      H       23.2600000000     32.5650000000     15.8020000000
     64      H       22.0510000000     32.0850000000     16.9910000000
     65      H       18.2940000000     27.2960000000     11.2620000000
     66      H       16.6510000000     29.2390000000     14.7310000000
     67      H       22.6080000000     30.9120000000     14.2110000000
     68      H       17.1920000000     27.1540000000     13.4860000000
     69      H       23.6760000000     29.4720000000     15.7980000000
     70      H       22.5110000000     29.8390000000     17.0680000000
     71      H       19.9200000000     31.2270000000     17.6740000000
     72      H       17.3780000000     34.0330000000     15.6000000000
     73      H       19.6570000000     29.0980000000     15.9910000000
     74      H       19.9470000000     28.7270000000     14.2750000000
     75      H       21.6010000000     27.7480000000     16.3370000000
     76      H       22.1530000000     27.9920000000     14.6860000000
     77      H       15.4780000000     32.4430000000     15.7960000000
     78      H       15.7730000000     30.2590000000     16.8930000000
     79      H       17.5560000000     27.5200000000     18.4530000000
     80      H       16.2600000000     28.7440000000     18.5760000000
     81      H       16.7880000000     28.1560000000     16.9690000000
 $END
