 $FMOPRP MODPAR=8205 NAODIR=210 MAXIT=100
     $END
 $FMO
      SCFTYP(1)=RHF
      MODGRD=10
      MODMUL=0
      MAXCAO=5
      MAXBND=4
      NLAYER=1
      NFRAG=4
      ICHARG(1)=   0, 0, 0, 0
      FRGNAM(1)= Frag1, Frag2, Frag3, Frag4
      INDAT(1)= 0
                    1   -13    45   -51     0
                   14   -20    22   -24    26   -27    30    52
                  -56    59   -63    66     0
                   21    25    28   -29    31   -33    35   -36
                   39   -44    57   -58    64   -65    68   -69
                   76   -78     0
                   34    37   -38    67    70   -75     0
 $END
 $FMOBND
         -11      14  DFTB-C
         -19      21  DFTB-C
         -29      34  DFTB-C
 $END
 $DATA
 FMO calculation : umass_1_kb_57_2d_vm2_vchem
 C1 
 C   6
 N   7
 O   8
 S   16
 F   9
 H   1
 $END
 $FMOXYZ
      1      C       21.6720000000     25.7990000000      5.8270000000
      2      C       20.7480000000     25.0530000000      6.5670000000
      3      C       22.6600000000     26.4910000000      6.5310000000
      4      C       20.8080000000     25.0030000000      7.9590000000
      5      F       23.5630000000     27.2180000000      5.8420000000
      6      C       22.7570000000     26.4660000000      7.9240000000
      7      C       21.8120000000     25.7130000000      8.6510000000
      8      N       21.8780000000     25.6960000000     10.0610000000
      9      C       22.8880000000     26.4460000000     10.8000000000
     10      C       21.0470000000     25.0120000000     10.9280000000
     11      C       22.4580000000     26.2640000000     12.2670000000
     12      O       20.1130000000     24.2460000000     10.6560000000
     13      O       21.3950000000     25.2820000000     12.2220000000
     14      C       21.9150000000     27.5840000000     12.8670000000
     15      O       22.5390000000     28.6490000000     12.6900000000
     16      N       20.7480000000     27.5130000000     13.5630000000
     17      C       19.9170000000     28.7110000000     13.7710000000
     18      C       18.6960000000     28.6280000000     12.8220000000
     19      C       19.5260000000     28.8590000000     15.2740000000
     20      C       19.0880000000     28.4820000000     11.3650000000
     21      C       18.8890000000     30.2310000000     15.5940000000
     22      O       18.6300000000     27.8180000000     15.6760000000
     23      C       20.0950000000     29.2750000000     10.7960000000
     24      C       18.4270000000     27.5470000000     10.5550000000
     25      N       19.7900000000     31.3640000000     15.2630000000
     26      C       20.4300000000     29.1380000000      9.4480000000
     27      C       18.7560000000     27.4160000000      9.2050000000
     28      S       19.0490000000     32.8070000000     14.7120000000
     29      C       21.0340000000     31.4690000000     16.0850000000
     30      C       19.7570000000     28.2140000000      8.6470000000
     31      O       17.6840000000     32.9010000000     15.2560000000
     32      C       18.9120000000     32.5410000000     12.9320000000
     33      O       19.9860000000     33.9080000000     14.9520000000
     34      C       22.2980000000     30.9300000000     15.3700000000
     35      C       19.9440000000     32.9770000000     12.0880000000
     36      C       17.7640000000     31.8790000000     12.4170000000
     37      C       22.5380000000     31.6400000000     14.0360000000
     38      C       23.5080000000     31.0690000000     16.3010000000
     39      C       19.8980000000     32.7620000000     10.6980000000
     40      C       17.7420000000     31.6640000000     11.0490000000
     41      C       18.7860000000     32.0880000000     10.2080000000
     42      O       16.7890000000     31.0340000000     10.3010000000
     43      O       18.5020000000     31.7370000000      8.9240000000
     44      C       17.2560000000     31.0260000000      8.9460000000
     45      H       21.6280000000     25.8410000000      4.7440000000
     46      H       19.9680000000     24.5030000000      6.0490000000
     47      H       20.0770000000     24.4270000000      8.5130000000
     48      H       23.5460000000     27.0220000000      8.4180000000
     49      H       22.8910000000     27.5100000000     10.5170000000
     50      H       23.8980000000     26.0500000000     10.6080000000
     51      H       23.2680000000     25.8580000000     12.8970000000
     52      H       20.2590000000     26.6150000000     13.5900000000
     53      H       20.5440000000     29.5730000000     13.4950000000
     54      H       18.0660000000     27.7830000000     13.1140000000
     55      H       18.0830000000     29.5290000000     12.9520000000
     56      H       20.4400000000     28.7270000000     15.8790000000
     57      H       17.9600000000     30.3490000000     15.0230000000
     58      H       18.6180000000     30.2560000000     16.6620000000
     59      H       17.7390000000     27.9870000000     15.3170000000
     60      H       20.6300000000     29.9960000000     11.4070000000
     61      H       17.6500000000     26.9200000000     10.9870000000
     62      H       21.2140000000     29.7590000000      9.0230000000
     63      H       18.2350000000     26.6880000000      8.5900000000
     64      H       21.1920000000     32.5210000000     16.3500000000
     65      H       20.8720000000     30.9190000000     17.0220000000
     66      H       20.0140000000     28.1120000000      7.5970000000
     67      H       22.1550000000     29.8600000000     15.1590000000
     68      H       20.7910000000     33.5040000000     12.5190000000
     69      H       16.9520000000     31.5740000000     13.0710000000
     70      H       23.4460000000     31.2710000000     13.5660000000
     71      H       21.7120000000     31.4570000000     13.3510000000
     72      H       22.6350000000     32.7160000000     14.1720000000
     73      H       23.3400000000     30.5370000000     17.2350000000
     74      H       24.4000000000     30.6600000000     15.8340000000
     75      H       23.7000000000     32.1130000000     16.5380000000
     76      H       20.7010000000     33.1000000000     10.0520000000
     77      H       17.4100000000     29.9800000000      8.6000000000
     78      H       16.5210000000     31.5270000000      8.2830000000
 $END
