 $FMOPRP MODPAR=8205 NAODIR=210 MAXIT=100
     $END
 $FMO
      SCFTYP(1)=RHF
      MODGRD=10
      MODMUL=0
      MAXCAO=5
      MAXBND=4
      NLAYER=1
      NFRAG=4
      ICHARG(1)=   0, 0, 0, 0
      FRGNAM(1)= Frag1, Frag2, Frag3, Frag4
      INDAT(1)= 0
                    1   -15    49   -58     0
                   16   -22    24   -26    28   -29    32    59
                  -63    66   -70    73     0
                   23    27    30   -31    34   -36    39   -40
                   43   -48    64   -65    71   -72    75    78
                    0
                   33    37   -38    41   -42    74    76   -77
                    0
 $END
 $FMOBND
         -15      16  DFTB-C
         -21      23  DFTB-C
         -30      33  DFTB-C
 $END
 $DATA
 FMO calculation : umass_1_kb_18_2d_vm2_vchem
 C1 
 C   6
 N   7
 O   8
 S   16
 F   9
 H   1
 $END
 $FMOXYZ
      1      C       22.4440000000     26.0190000000      7.2130000000
      2      C       21.0760000000     25.6800000000      7.1670000000
      3      C       23.0180000000     26.3000000000      8.4680000000
      4      C       23.2220000000     26.0670000000      5.9440000000
      5      C       20.3030000000     25.6300000000      8.3180000000
      6      C       22.2560000000     26.2560000000      9.6300000000
      7      C       24.6960000000     26.4280000000      5.9900000000
      8      O       22.6760000000     25.8190000000      4.8650000000
      9      C       20.8850000000     25.9280000000      9.5690000000
     10      N       20.1180000000     25.9260000000     10.7510000000
     11      C       18.7750000000     25.6140000000     10.8740000000
     12      C       20.6780000000     26.3000000000     12.0460000000
     13      O       17.9980000000     25.2110000000     10.0000000000
     14      O       18.3670000000     25.8040000000     12.1640000000
     15      C       19.4430000000     26.3420000000     12.9640000000
     16      C       19.1020000000     27.7870000000     13.3920000000
     17      N       17.8290000000     28.2130000000     13.1960000000
     18      O       19.9900000000     28.5160000000     13.8870000000
     19      C       17.4740000000     29.6370000000     13.2720000000
     20      C       17.2130000000     30.1820000000     11.8410000000
     21      C       16.2510000000     29.8130000000     14.2100000000
     22      C       18.2610000000     29.7490000000     10.8370000000
     23      C       15.9360000000     31.2890000000     14.5430000000
     24      O       15.1150000000     29.2150000000     13.5820000000
     25      C       17.8680000000     29.1770000000      9.6180000000
     26      C       19.6320000000     29.9080000000     11.0960000000
     27      N       17.0400000000     31.9670000000     15.2760000000
     28      C       18.8200000000     28.7900000000      8.6730000000
     29      C       20.5820000000     29.5190000000     10.1520000000
     30      C       17.3140000000     33.3830000000     14.8680000000
     31      S       17.4060000000     31.4680000000     16.8480000000
     32      C       20.1790000000     28.9660000000      8.9340000000
     33      C       17.8980000000     33.4510000000     13.4830000000
     34      C       18.8830000000     30.4170000000     16.6280000000
     35      O       17.8020000000     32.6300000000     17.6420000000
     36      O       16.3390000000     30.5920000000     17.3340000000
     37      S       19.5230000000     32.8930000000     13.1170000000
     38      C       17.2760000000     33.9130000000     12.3480000000
     39      C       20.1090000000     30.9680000000     16.2140000000
     40      C       18.8260000000     29.0410000000     16.9350000000
     41      C       19.3320000000     33.2960000000     11.4280000000
     42      C       18.0940000000     33.8250000000     11.1780000000
     43      F       20.1550000000     32.2760000000     15.9180000000
     44      C       21.2810000000     30.2090000000     16.1080000000
     45      C       19.9810000000     28.2710000000     16.8240000000
     46      C       21.2010000000     28.8480000000     16.4160000000
     47      F       19.9400000000     26.9540000000     17.1170000000
     48      F       22.2960000000     28.0810000000     16.3390000000
     49      H       20.6280000000     25.4630000000      6.2010000000
     50      H       24.0700000000     26.5630000000      8.5400000000
     51      H       19.2500000000     25.3770000000      8.2570000000
     52      H       22.7250000000     26.4870000000     10.5800000000
     53      H       25.1200000000     26.4270000000      4.9900000000
     54      H       24.8390000000     27.4150000000      6.4290000000
     55      H       25.2480000000     25.7160000000      6.6040000000
     56      H       21.4250000000     25.5630000000     12.3840000000
     57      H       21.1770000000     27.2800000000     12.0030000000
     58      H       19.5600000000     25.7000000000     13.8550000000
     59      H       17.1610000000     27.5930000000     12.7340000000
     60      H       18.3430000000     30.1500000000     13.7160000000
     61      H       16.2280000000     29.8440000000     11.5090000000
     62      H       17.1690000000     31.2770000000     11.8880000000
     63      H       16.4640000000     29.2640000000     15.1550000000
     64      H       15.7680000000     31.8530000000     13.6200000000
     65      H       15.0010000000     31.3340000000     15.1260000000
     66      H       14.3440000000     29.2910000000     14.1740000000
     67      H       16.8100000000     29.0360000000      9.4100000000
     68      H       19.9580000000     30.3300000000     12.0430000000
     69      H       18.5000000000     28.3490000000      7.7330000000
     70      H       21.6390000000     29.6480000000     10.3670000000
     71      H       16.3780000000     33.9620000000     14.8990000000
     72      H       17.9980000000     33.8160000000     15.6050000000
     73      H       20.9210000000     28.6690000000      8.1980000000
     74      H       16.2630000000     34.3030000000     12.3470000000
     75      H       17.8920000000     28.5910000000     17.2600000000
     76      H       20.1250000000     33.1220000000     10.7110000000
     77      H       17.7660000000     34.1410000000     10.1940000000
     78      H       22.2140000000     30.6600000000     15.7860000000
 $END
