 $FMOPRP MODPAR=8205 NAODIR=210 MAXIT=100
     $END
 $FMO
      SCFTYP(1)=RHF
      MODGRD=10
      MODMUL=0
      MAXCAO=5
      MAXBND=4
      NLAYER=1
      NFRAG=4
      ICHARG(1)=   0, 0, 0, 0
      FRGNAM(1)= Frag1, Frag2, Frag3, Frag4
      INDAT(1)= 0
                    1   -13    47   -53     0
                   14   -21    23   -24    26   -27    30    54
                  -59    62   -65    68     0
                   22    25    28   -29    32   -34    37   -38
                   41   -46    60   -61    66   -67    70    73
                    0
                   31    35   -36    39   -40    69    71   -72
                    0
 $END
 $FMOBND
         -11      14  DFTB-C
         -19      22  DFTB-C
         -28      31  DFTB-C
 $END
 $DATA
 FMO calculation : umass_1_kb_01_2d_vm2_vchem
 C1 
 C   6
 N   7
 O   8
 S   16
 F   9
 H   1
 $END
 $FMOXYZ
      1      C       20.8710000000     25.7810000000      6.0150000000
      2      C       20.3300000000     27.0140000000      6.3900000000
      3      C       21.7700000000     25.1700000000      6.8940000000
      4      C       20.6730000000     27.6110000000      7.6030000000
      5      F       22.3050000000     23.9800000000      6.5530000000
      6      C       22.1390000000     25.7330000000      8.1160000000
      7      C       21.5770000000     26.9740000000      8.4790000000
      8      N       21.8950000000     27.5820000000      9.7140000000
      9      C       21.3200000000     28.8570000000     10.1230000000
     10      C       22.7110000000     27.0720000000     10.7050000000
     11      C       21.8410000000     29.0350000000     11.5610000000
     12      O       22.7120000000     27.9030000000     11.7890000000
     13      O       23.3770000000     26.0270000000     10.6900000000
     14      C       20.6970000000     29.0420000000     12.5960000000
     15      N       20.8480000000     28.2780000000     13.7110000000
     16      O       19.6880000000     29.7530000000     12.3970000000
     17      C       19.7070000000     28.0280000000     14.6020000000
     18      C       19.1530000000     26.5860000000     14.3870000000
     19      C       20.0930000000     28.3050000000     16.0840000000
     20      C       19.1230000000     26.2050000000     12.9230000000
     21      O       20.7270000000     27.1500000000     16.6290000000
     22      C       18.8660000000     28.7030000000     16.9540000000
     23      C       18.0740000000     26.6200000000     12.0910000000
     24      C       20.1710000000     25.4570000000     12.3670000000
     25      N       18.5130000000     30.1320000000     16.7960000000
     26      C       18.0770000000     26.3030000000     10.7320000000
     27      C       20.1670000000     25.1280000000     11.0100000000
     28      C       19.4850000000     31.1560000000     17.2880000000
     29      S       16.9750000000     30.6280000000     16.3360000000
     30      C       19.1220000000     25.5550000000     10.1880000000
     31      C       19.9540000000     32.0890000000     16.2050000000
     32      C       17.0490000000     30.8230000000     14.5150000000
     33      O       16.0250000000     29.5610000000     16.6430000000
     34      O       16.7610000000     31.9680000000     16.8780000000
     35      S       20.6550000000     31.5130000000     14.7010000000
     36      C       19.8880000000     33.4620000000     16.2150000000
     37      C       16.6920000000     29.7970000000     13.6220000000
     38      C       17.4650000000     32.0640000000     13.9810000000
     39      C       20.8480000000     33.1440000000     14.1090000000
     40      C       20.3990000000     34.0620000000     15.0210000000
     41      C       16.7190000000     29.9650000000     12.2300000000
     42      F       16.3010000000     28.6090000000     14.1090000000
     43      C       17.5310000000     32.2320000000     12.6020000000
     44      C       17.1570000000     31.1920000000     11.7280000000
     45      F       17.9310000000     33.4140000000     12.0880000000
     46      F       17.2040000000     31.3950000000     10.4040000000
     47      H       20.6080000000     25.3100000000      5.0740000000
     48      H       19.6300000000     27.5170000000      5.7290000000
     49      H       20.2350000000     28.5670000000      7.8650000000
     50      H       22.8370000000     25.2230000000      8.7710000000
     51      H       20.2190000000     28.8340000000     10.0990000000
     52      H       21.6460000000     29.6730000000      9.4590000000
     53      H       22.4450000000     29.9540000000     11.6730000000
     54      H       21.6560000000     27.6580000000     13.7830000000
     55      H       18.9380000000     28.7580000000     14.2980000000
     56      H       19.7830000000     25.8850000000     14.9390000000
     57      H       18.1490000000     26.5380000000     14.8200000000
     58      H       20.8210000000     29.1470000000     16.1010000000
     59      H       21.0240000000     27.3410000000     17.5380000000
     60      H       17.9900000000     28.1000000000     16.6930000000
     61      H       19.0990000000     28.5020000000     18.0120000000
     62      H       17.2530000000     27.1920000000     12.5120000000
     63      H       20.9900000000     25.1260000000     13.0000000000
     64      H       17.2610000000     26.6390000000     10.0980000000
     65      H       20.9810000000     24.5420000000     10.5930000000
     66      H       19.0230000000     31.7450000000     18.0930000000
     67      H       20.3260000000     30.6070000000     17.7320000000
     68      H       19.1220000000     25.3030000000      9.1310000000
     69      H       19.4780000000     34.0260000000     17.0450000000
     70      H       17.7260000000     32.8840000000     14.6440000000
     71      H       21.2710000000     33.3450000000     13.1330000000
     72      H       20.4230000000     35.1320000000     14.8530000000
     73      H       16.4280000000     29.1600000000     11.5640000000
 $END
